    1C
    1UUSER                                                              
    1UDATE              01.april.2017                                   
    1UTIME              17:14:36                                        
    1UHOST                                                              
    1UPGM               CalculiX                                        
    1UVERSION           Version 2.12                             
    1UCOMPILETIME       Fr 24. MÃ¤r 20:05:01 CET 2017                    
    1UDIR                                                               
    1UDBN                                                               
    1UMAT    1EL                                                        
    2C                           490                                     1
 -1         1 1.00000E+00 6.12323E-17 1.00000E+00
 -1         2 5.00000E-01 6.12323E-17 1.00000E+00
 -1         3 5.00000E-01-4.36215E-02 9.99046E-01
 -1         4 1.00000E+00-4.36215E-02 9.99046E-01
 -1         5 1.00000E+00 9.18485E-17 1.50000E+00
 -1         6 6.25000E-01 9.18485E-17 1.50000E+00
 -1         7 6.25000E-01-6.54298E-02 1.49857E+00
 -1         8 1.00000E+00-6.54298E-02 1.49857E+00
 -1         9 7.50000E-01 6.12323E-17 1.00000E+00
 -1        10 5.00000E-01-2.18160E-02 9.99761E-01
 -1        11 7.50000E-01-4.36215E-02 9.99046E-01
 -1        12 1.00000E+00-2.18160E-02 9.99761E-01
 -1        13 1.00000E+00 7.65404E-17 1.25000E+00
 -1        14 5.62500E-01 7.65404E-17 1.25000E+00
 -1        15 5.62500E-01-5.45256E-02 1.24881E+00
 -1        16 1.00000E+00-5.45256E-02 1.24881E+00
 -1        17 8.12500E-01 9.18485E-17 1.50000E+00
 -1        18 6.25000E-01-3.27227E-02 1.49964E+00
 -1        19 8.12500E-01-6.54298E-02 1.49857E+00
 -1        20 1.00000E+00-3.27227E-02 1.49964E+00
 -1        21 5.00000E-01-8.71600E-02 9.96190E-01
 -1        22 1.00000E+00-8.71600E-02 9.96190E-01
 -1        23 6.25000E-01-1.30735E-01 1.49429E+00
 -1        24 1.00000E+00-1.30735E-01 1.49429E+00
 -1        25 5.00000E-01-6.54063E-02 9.97855E-01
 -1        26 7.50000E-01-8.71600E-02 9.96190E-01
 -1        27 1.00000E+00-6.54063E-02 9.97855E-01
 -1        28 5.62500E-01-1.08948E-01 1.24524E+00
 -1        29 1.00000E+00-1.08948E-01 1.24524E+00
 -1        30 6.25000E-01-9.81057E-02 1.49679E+00
 -1        31 8.12500E-01-1.30735E-01 1.49429E+00
 -1        32 1.00000E+00-9.81057E-02 1.49679E+00
 -1        33 1.00000E+00 1.22465E-16 2.00000E+00
 -1        34 7.50000E-01 1.22465E-16 2.00000E+00
 -1        35 7.50000E-01-8.72380E-02 1.99810E+00
 -1        36 1.00000E+00-8.72380E-02 1.99810E+00
 -1        37 1.00000E+00 1.07157E-16 1.75000E+00
 -1        38 6.87500E-01 1.07157E-16 1.75000E+00
 -1        39 6.87500E-01-7.63339E-02 1.74833E+00
 -1        40 1.00000E+00-7.63339E-02 1.74833E+00
 -1        41 8.75000E-01 1.22465E-16 2.00000E+00
 -1        42 7.50000E-01-4.36294E-02 1.99952E+00
 -1        43 8.75000E-01-8.72380E-02 1.99810E+00
 -1        44 1.00000E+00-4.36294E-02 1.99952E+00
 -1        45 7.50000E-01-1.74310E-01 1.99239E+00
 -1        46 1.00000E+00-1.74310E-01 1.99239E+00
 -1        47 6.87500E-01-1.52523E-01 1.74334E+00
 -1        48 1.00000E+00-1.52523E-01 1.74334E+00
 -1        49 7.50000E-01-1.30805E-01 1.99572E+00
 -1        50 8.75000E-01-1.74310E-01 1.99239E+00
 -1        51 1.00000E+00-1.30805E-01 1.99572E+00
 -1        52 0.00000E+00 6.12323E-17 1.00000E+00
 -1        53 0.00000E+00-4.36215E-02 9.99046E-01
 -1        54 2.50000E-01 9.18485E-17 1.50000E+00
 -1        55 2.50000E-01-6.54298E-02 1.49857E+00
 -1        56 2.50000E-01 6.12323E-17 1.00000E+00
 -1        57 0.00000E+00-2.18160E-02 9.99761E-01
 -1        58 2.50000E-01-4.36215E-02 9.99046E-01
 -1        59 1.25000E-01 7.65404E-17 1.25000E+00
 -1        60 1.25000E-01-5.45256E-02 1.24881E+00
 -1        61 4.37500E-01 9.18485E-17 1.50000E+00
 -1        62 2.50000E-01-3.27227E-02 1.49964E+00
 -1        63 4.37500E-01-6.54298E-02 1.49857E+00
 -1        64 0.00000E+00-8.71600E-02 9.96190E-01
 -1        65 2.50000E-01-1.30735E-01 1.49429E+00
 -1        66 0.00000E+00-6.54063E-02 9.97855E-01
 -1        67 2.50000E-01-8.71600E-02 9.96190E-01
 -1        68 1.25000E-01-1.08948E-01 1.24524E+00
 -1        69 2.50000E-01-9.81057E-02 1.49679E+00
 -1        70 4.37500E-01-1.30735E-01 1.49429E+00
 -1        71 5.00000E-01 1.22465E-16 2.00000E+00
 -1        72 5.00000E-01-8.72380E-02 1.99810E+00
 -1        73 3.75000E-01 1.07157E-16 1.75000E+00
 -1        74 3.75000E-01-7.63339E-02 1.74833E+00
 -1        75 6.25000E-01 1.22465E-16 2.00000E+00
 -1        76 5.00000E-01-4.36294E-02 1.99952E+00
 -1        77 6.25000E-01-8.72380E-02 1.99810E+00
 -1        78 5.00000E-01-1.74310E-01 1.99239E+00
 -1        79 3.75000E-01-1.52523E-01 1.74334E+00
 -1        80 5.00000E-01-1.30805E-01 1.99572E+00
 -1        81 6.25000E-01-1.74310E-01 1.99239E+00
 -1        82 5.00000E-01 2.14313E-16 3.50000E+00
 -1        83 2.50000E-01 1.99005E-16 3.25000E+00
 -1        84 2.50000E-01-1.42660E-01 3.26740E+00
 -1        85 5.00000E-01-1.54205E-01 3.53179E+00
 -1        86 5.00000E-01 1.68389E-16 2.75000E+00
 -1        87 2.50000E-01 1.45427E-16 2.37500E+00
 -1        88 2.50000E-01-1.04045E-01 2.38298E+00
 -1        89 5.00000E-01-1.20721E-01 2.76495E+00
 -1        90 3.75000E-01 2.06659E-16 3.37500E+00
 -1        91 2.50000E-01-7.11232E-02 3.25948E+00
 -1        92 3.75000E-01-1.48464E-01 3.40033E+00
 -1        93 5.00000E-01-7.67371E-02 3.51674E+00
 -1        94 2.50000E-01-2.86836E-01 3.27849E+00
 -1        95 5.00000E-01-3.11180E-01 3.55673E+00
 -1        96 2.50000E-01-2.08785E-01 2.38639E+00
 -1        97 5.00000E-01-2.42745E-01 2.77456E+00
 -1        98 2.50000E-01-2.14576E-01 3.27374E+00
 -1        99 3.75000E-01-2.99135E-01 3.41907E+00
 -1       100 5.00000E-01-2.32365E-01 3.54513E+00
 -1       101 5.00000E-01 3.06162E-16 5.00000E+00
 -1       102 2.50000E-01 3.06162E-16 5.00000E+00
 -1       103 2.50000E-01-2.18098E-01 4.99524E+00
 -1       104 5.00000E-01-2.18098E-01 4.99524E+00
 -1       105 5.00000E-01 2.60237E-16 4.25000E+00
 -1       106 2.50000E-01 2.52583E-16 4.12500E+00
 -1       107 2.50000E-01-1.80379E-01 4.13132E+00
 -1       108 5.00000E-01-1.86151E-01 4.26352E+00
 -1       109 3.75000E-01 3.06162E-16 5.00000E+00
 -1       110 2.50000E-01-1.09075E-01 4.99881E+00
 -1       111 3.75000E-01-2.18098E-01 4.99524E+00
 -1       112 5.00000E-01-1.09075E-01 4.99881E+00
 -1       113 2.50000E-01-4.35780E-01 4.98097E+00
 -1       114 5.00000E-01-4.35780E-01 4.98097E+00
 -1       115 2.50000E-01-3.61308E-01 4.12973E+00
 -1       116 5.00000E-01-3.73480E-01 4.26885E+00
 -1       117 2.50000E-01-3.27017E-01 4.98929E+00
 -1       118 3.75000E-01-4.35780E-01 4.98097E+00
 -1       119 5.00000E-01-3.27017E-01 4.98929E+00
 -1       120 0.00000E+00 1.83697E-16 3.00000E+00
 -1       121 0.00000E+00-1.30860E-01 2.99714E+00
 -1       122 0.00000E+00 1.22465E-16 2.00000E+00
 -1       123-8.88178E-16-8.72405E-02 1.99809E+00
 -1       124 1.25000E-01 1.91351E-16 3.12500E+00
 -1       125 0.00000E+00-6.54453E-02 2.99929E+00
 -1       126 1.25000E-01-1.36792E-01 3.13300E+00
 -1       127 0.00000E+00-2.61470E-01 2.98858E+00
 -1       128 0.00000E+00-1.74315E-01 1.99239E+00
 -1       129-8.88178E-16-1.96211E-01 2.99357E+00
 -1       130 1.25000E-01-2.74280E-01 3.13500E+00
 -1       131 0.00000E+00 3.06162E-16 5.00000E+00
 -1       132 0.00000E+00-2.18098E-01 4.99524E+00
 -1       133 0.00000E+00 2.44929E-16 4.00000E+00
 -1       134 0.00000E+00-1.74479E-01 3.99619E+00
 -1       135 1.25000E-01 3.06162E-16 5.00000E+00
 -1       136 0.00000E+00-1.09075E-01 4.99881E+00
 -1       137 1.25000E-01-2.18098E-01 4.99524E+00
 -1       138 0.00000E+00-4.35780E-01 4.98097E+00
 -1       139 0.00000E+00-3.48625E-01 3.98478E+00
 -1       140 0.00000E+00-3.27017E-01 4.98929E+00
 -1       141 1.25000E-01-4.35780E-01 4.98097E+00
 -1       142 5.00000E-01-1.30529E-01 9.91444E-01
 -1       143 1.00000E+00-1.30529E-01 9.91444E-01
 -1       144 6.25000E-01-1.95791E-01 1.48717E+00
 -1       145 1.00000E+00-1.95791E-01 1.48717E+00
 -1       146 5.00000E-01-1.08871E-01 9.94053E-01
 -1       147 7.50000E-01-1.30529E-01 9.91444E-01
 -1       148 1.00000E+00-1.08871E-01 9.94053E-01
 -1       149 5.62500E-01-1.63160E-01 1.23931E+00
 -1       150 1.00000E+00-1.63160E-01 1.23931E+00
 -1       151 6.25000E-01-1.63302E-01 1.49108E+00
 -1       152 8.12500E-01-1.95791E-01 1.48717E+00
 -1       153 1.00000E+00-1.63302E-01 1.49108E+00
 -1       154 5.00000E-01-1.73650E-01 9.84810E-01
 -1       155 1.00000E+00-1.73650E-01 9.84810E-01
 -1       156 6.25000E-01-2.60475E-01 1.47722E+00
 -1       157 1.00000E+00-2.60475E-01 1.47722E+00
 -1       158 5.00000E-01-1.52126E-01 9.88362E-01
 -1       159 7.50000E-01-1.73650E-01 9.84810E-01
 -1       160 1.00000E+00-1.52126E-01 9.88362E-01
 -1       161 5.62500E-01-2.17063E-01 1.23101E+00
 -1       162 1.00000E+00-2.17063E-01 1.23101E+00
 -1       163 6.25000E-01-2.28187E-01 1.48254E+00
 -1       164 8.12500E-01-2.60475E-01 1.47722E+00
 -1       165 1.00000E+00-2.28187E-01 1.48254E+00
 -1       166 7.50000E-01-2.61053E-01 1.98289E+00
 -1       167 1.00000E+00-2.61053E-01 1.98289E+00
 -1       168 6.87500E-01-2.28422E-01 1.73503E+00
 -1       169 1.00000E+00-2.28422E-01 1.73503E+00
 -1       170 7.50000E-01-2.17734E-01 1.98811E+00
 -1       171 8.75000E-01-2.61053E-01 1.98289E+00
 -1       172 1.00000E+00-2.17734E-01 1.98811E+00
 -1       173 7.50000E-01-3.47300E-01 1.96962E+00
 -1       174 1.00000E+00-3.47300E-01 1.96962E+00
 -1       175 6.87500E-01-3.03887E-01 1.72342E+00
 -1       176 1.00000E+00-3.03887E-01 1.72342E+00
 -1       177 7.50000E-01-3.04249E-01 1.97673E+00
 -1       178 8.75000E-01-3.47300E-01 1.96962E+00
 -1       179 1.00000E+00-3.04249E-01 1.97673E+00
 -1       180 0.00000E+00-1.30529E-01 9.91444E-01
 -1       181 2.50000E-01-1.95791E-01 1.48717E+00
 -1       182 0.00000E+00-1.08871E-01 9.94053E-01
 -1       183 2.50000E-01-1.30529E-01 9.91444E-01
 -1       184 1.25000E-01-1.63160E-01 1.23931E+00
 -1       185 2.50000E-01-1.63302E-01 1.49108E+00
 -1       186 4.37500E-01-1.95791E-01 1.48717E+00
 -1       187 0.00000E+00-1.73650E-01 9.84810E-01
 -1       188 2.50000E-01-2.60475E-01 1.47722E+00
 -1       189 0.00000E+00-1.52126E-01 9.88362E-01
 -1       190 2.50000E-01-1.73650E-01 9.84810E-01
 -1       191 1.25000E-01-2.17063E-01 1.23101E+00
 -1       192 2.50000E-01-2.28187E-01 1.48254E+00
 -1       193 4.37500E-01-2.60475E-01 1.47722E+00
 -1       194 5.00000E-01-2.61053E-01 1.98289E+00
 -1       195 3.75000E-01-2.28422E-01 1.73503E+00
 -1       196 5.00000E-01-2.17734E-01 1.98811E+00
 -1       197 6.25000E-01-2.61053E-01 1.98289E+00
 -1       198 5.00000E-01-3.47300E-01 1.96962E+00
 -1       199 3.75000E-01-3.03887E-01 1.72342E+00
 -1       200 5.00000E-01-3.04249E-01 1.97673E+00
 -1       201 6.25000E-01-3.47300E-01 1.96962E+00
 -1       202 2.50000E-01-4.26890E-01 3.24253E+00
 -1       203 5.00000E-01-4.61435E-01 3.50492E+00
 -1       204 2.50000E-01-3.11341E-01 2.36485E+00
 -1       205 5.00000E-01-3.61244E-01 2.74390E+00
 -1       206 2.50000E-01-3.57170E-01 3.26126E+00
 -1       207 3.75000E-01-4.44258E-01 3.37445E+00
 -1       208 5.00000E-01-3.86781E-01 3.53162E+00
 -1       209 2.50000E-01-5.64358E-01 3.20063E+00
 -1       210 5.00000E-01-6.07770E-01 3.44683E+00
 -1       211 2.50000E-01-4.12416E-01 2.33892E+00
 -1       212 5.00000E-01-4.77535E-01 2.70823E+00
 -1       213 2.50000E-01-4.95963E-01 3.22231E+00
 -1       214 3.75000E-01-5.86064E-01 3.32373E+00
 -1       215 5.00000E-01-5.35109E-01 3.47664E+00
 -1       216 2.50000E-01-6.52631E-01 4.95722E+00
 -1       217 5.00000E-01-6.52631E-01 4.95722E+00
 -1       218 2.50000E-01-5.39761E-01 4.09988E+00
 -1       219 5.00000E-01-5.57033E-01 4.23107E+00
 -1       220 2.50000E-01-5.44335E-01 4.97028E+00
 -1       221 3.75000E-01-6.52631E-01 4.95722E+00
 -1       222 5.00000E-01-5.44335E-01 4.97028E+00
 -1       223 2.50000E-01-8.68240E-01 4.92404E+00
 -1       224 5.00000E-01-8.68240E-01 4.92404E+00
 -1       225 2.50000E-01-7.16299E-01 4.06233E+00
 -1       226 5.00000E-01-7.38005E-01 4.18543E+00
 -1       227 2.50000E-01-7.60617E-01 4.94181E+00
 -1       228 3.75000E-01-8.68240E-01 4.92404E+00
 -1       229 5.00000E-01-7.60617E-01 4.94181E+00
 -1       230 4.44089E-16-3.91580E-01 2.97433E+00
 -1       231 0.00000E+00-2.61055E-01 1.98289E+00
 -1       232-8.88178E-16-3.26603E-01 2.98217E+00
 -1       233 1.25000E-01-4.09331E-01 3.10916E+00
 -1       234 0.00000E+00-5.20945E-01 2.95443E+00
 -1       235 0.00000E+00-3.47297E-01 1.96962E+00
 -1       236-8.88178E-16-4.56371E-01 2.96508E+00
 -1       237 1.25000E-01-5.42651E-01 3.07753E+00
 -1       238 0.00000E+00-6.52631E-01 4.95722E+00
 -1       239 0.00000E+00-5.22106E-01 3.96578E+00
 -1       240 0.00000E+00-5.44335E-01 4.97028E+00
 -1       241 1.25000E-01-6.52631E-01 4.95722E+00
 -1       242 0.00000E+00-8.68240E-01 4.92404E+00
 -1       243 0.00000E+00-6.94592E-01 3.93923E+00
 -1       244 0.00000E+00-7.60617E-01 4.94181E+00
 -1       245 1.25000E-01-8.68240E-01 4.92404E+00
 -1       246 8.00000E-01 1.38997E-16 2.27000E+00
 -1       247 6.50000E-01 1.29813E-16 2.12000E+00
 -1       248 6.50000E-01-9.24730E-02 2.11798E+00
 -1       249 8.00000E-01-9.90142E-02 2.26784E+00
 -1       250 8.00000E-01 2.22580E-16 3.63500E+00
 -1       251 6.50000E-01 2.17987E-16 3.56000E+00
 -1       252 6.50000E-01-1.55652E-01 3.56499E+00
 -1       253 8.00000E-01-1.58556E-01 3.63154E+00
 -1       254 7.25000E-01 1.34405E-16 2.19500E+00
 -1       255 6.50000E-01-4.62475E-02 2.11949E+00
 -1       256 7.25000E-01-9.57436E-02 2.19291E+00
 -1       257 8.00000E-01-4.95189E-02 2.26946E+00
 -1       258 8.00000E-01 1.80788E-16 2.95250E+00
 -1       259 6.50000E-01 1.73900E-16 2.84000E+00
 -1       260 6.50000E-01-1.24062E-01 2.84149E+00
 -1       261 8.00000E-01-1.28785E-01 2.94969E+00
 -1       262 7.25000E-01 2.20283E-16 3.59750E+00
 -1       263 6.50000E-01-7.77529E-02 3.56335E+00
 -1       264 7.25000E-01-1.57099E-01 3.59816E+00
 -1       265 8.00000E-01-7.92968E-02 3.63413E+00
 -1       266 6.50000E-01-1.84770E-01 2.11193E+00
 -1       267 8.00000E-01-1.97840E-01 2.26136E+00
 -1       268 6.50000E-01-3.11739E-01 3.56317E+00
 -1       269 8.00000E-01-3.16810E-01 3.62117E+00
 -1       270 6.50000E-01-1.38655E-01 2.11546E+00
 -1       271 7.25000E-01-1.91305E-01 2.18665E+00
 -1       272 8.00000E-01-1.48462E-01 2.26514E+00
 -1       273 6.50000E-01-2.48254E-01 2.83755E+00
 -1       274 8.00000E-01-2.57325E-01 2.94126E+00
 -1       275 6.50000E-01-2.33660E-01 3.56494E+00
 -1       276 7.25000E-01-3.14255E-01 3.59195E+00
 -1       277 8.00000E-01-2.37740E-01 3.62722E+00
 -1       278 8.00000E-01 3.06162E-16 5.00000E+00
 -1       279 6.50000E-01 3.06162E-16 5.00000E+00
 -1       280 6.50000E-01-2.18098E-01 4.99524E+00
 -1       281 8.00000E-01-2.18098E-01 4.99524E+00
 -1       282 8.00000E-01 2.64371E-16 4.31750E+00
 -1       283 6.50000E-01 2.62074E-16 4.28000E+00
 -1       284 6.50000E-01-1.86875E-01 4.28012E+00
 -1       285 8.00000E-01-1.88327E-01 4.31339E+00
 -1       286 7.25000E-01 3.06162E-16 5.00000E+00
 -1       287 6.50000E-01-1.09075E-01 4.99881E+00
 -1       288 7.25000E-01-2.18098E-01 4.99524E+00
 -1       289 8.00000E-01-1.09075E-01 4.99881E+00
 -1       290 6.50000E-01-4.35780E-01 4.98097E+00
 -1       291 8.00000E-01-4.35780E-01 4.98097E+00
 -1       292 6.50000E-01-3.73759E-01 4.27207E+00
 -1       293 8.00000E-01-3.76295E-01 4.30107E+00
 -1       294 6.50000E-01-3.27017E-01 4.98929E+00
 -1       295 7.25000E-01-4.35780E-01 4.98097E+00
 -1       296 8.00000E-01-3.27017E-01 4.98929E+00
 -1       297 5.00000E-01 1.20628E-16 1.97000E+00
 -1       298 5.00000E-01-8.59318E-02 1.96812E+00
 -1       299 5.00000E-01 2.13395E-16 3.48500E+00
 -1       300 5.00000E-01-1.52786E-01 3.49932E+00
 -1       301 5.75000E-01 1.25220E-16 2.04500E+00
 -1       302 5.00000E-01-4.29761E-02 1.96953E+00
 -1       303 5.75000E-01-8.92024E-02 2.04305E+00
 -1       304 5.00000E-01 1.67011E-16 2.72750E+00
 -1       305 5.00000E-01-1.19359E-01 2.73372E+00
 -1       306 5.75000E-01 2.15691E-16 3.52250E+00
 -1       307 5.00000E-01-7.62185E-02 3.49300E+00
 -1       308 5.75000E-01-1.54214E-01 3.53205E+00
 -1       309 5.00000E-01-1.71700E-01 1.96250E+00
 -1       310 5.00000E-01-3.06820E-01 3.50692E+00
 -1       311 5.00000E-01-1.28847E-01 1.96578E+00
 -1       312 5.75000E-01-1.78235E-01 2.03721E+00
 -1       313 5.00000E-01-2.39260E-01 2.73471E+00
 -1       314 5.00000E-01-2.29665E-01 3.50397E+00
 -1       315 5.75000E-01-3.09260E-01 3.53483E+00
 -1       316 5.00000E-01 3.06162E-16 5.00000E+00
 -1       317 5.00000E-01-2.18098E-01 4.99524E+00
 -1       318 5.00000E-01 2.59778E-16 4.24250E+00
 -1       319 5.00000E-01-1.85442E-01 4.24728E+00
 -1       320 5.75000E-01 3.06162E-16 5.00000E+00
 -1       321 5.00000E-01-1.09075E-01 4.99881E+00
 -1       322 5.75000E-01-2.18098E-01 4.99524E+00
 -1       323 5.00000E-01-4.35780E-01 4.98097E+00
 -1       324 5.00000E-01-3.71300E-01 4.24395E+00
 -1       325 5.00000E-01-3.27017E-01 4.98929E+00
 -1       326 5.75000E-01-4.35780E-01 4.98097E+00
 -1       327 5.00000E+00 1.20628E-16 1.97000E+00
 -1       328 2.75000E+00 1.20628E-16 1.97000E+00
 -1       329 2.75000E+00-8.59318E-02 1.96812E+00
 -1       330 5.00000E+00-8.59318E-02 1.96812E+00
 -1       331 5.00000E+00 1.29813E-16 2.12000E+00
 -1       332 2.82500E+00 1.29813E-16 2.12000E+00
 -1       333 2.82500E+00-9.24730E-02 2.11798E+00
 -1       334 5.00000E+00-9.24730E-02 2.11798E+00
 -1       335 3.87500E+00 1.20628E-16 1.97000E+00
 -1       336 2.75000E+00-4.29761E-02 1.96953E+00
 -1       337 3.87500E+00-8.59318E-02 1.96812E+00
 -1       338 5.00000E+00-4.29761E-02 1.96953E+00
 -1       339 5.00000E+00 1.25220E-16 2.04500E+00
 -1       340 2.78750E+00 1.25220E-16 2.04500E+00
 -1       341 2.78750E+00-8.92024E-02 2.04305E+00
 -1       342 5.00000E+00-8.92024E-02 2.04305E+00
 -1       343 3.91250E+00 1.29813E-16 2.12000E+00
 -1       344 2.82500E+00-4.62475E-02 2.11949E+00
 -1       345 3.91250E+00-9.24730E-02 2.11798E+00
 -1       346 5.00000E+00-4.62475E-02 2.11949E+00
 -1       347 2.75000E+00-1.71700E-01 1.96250E+00
 -1       348 5.00000E+00-1.71700E-01 1.96250E+00
 -1       349 2.82500E+00-1.84770E-01 2.11193E+00
 -1       350 5.00000E+00-1.84770E-01 2.11193E+00
 -1       351 2.75000E+00-1.28847E-01 1.96578E+00
 -1       352 3.87500E+00-1.71700E-01 1.96250E+00
 -1       353 5.00000E+00-1.28847E-01 1.96578E+00
 -1       354 2.78750E+00-1.78235E-01 2.03721E+00
 -1       355 5.00000E+00-1.78235E-01 2.03721E+00
 -1       356 2.82500E+00-1.38655E-01 2.11546E+00
 -1       357 3.91250E+00-1.84770E-01 2.11193E+00
 -1       358 5.00000E+00-1.38655E-01 2.11546E+00
 -1       359 5.00000E+00 1.38997E-16 2.27000E+00
 -1       360 2.90000E+00 1.38997E-16 2.27000E+00
 -1       361 2.90000E+00-9.90142E-02 2.26784E+00
 -1       362 5.00000E+00-9.90142E-02 2.26784E+00
 -1       363 5.00000E+00 1.34405E-16 2.19500E+00
 -1       364 2.86250E+00 1.34405E-16 2.19500E+00
 -1       365 2.86250E+00-9.57436E-02 2.19291E+00
 -1       366 5.00000E+00-9.57436E-02 2.19291E+00
 -1       367 3.95000E+00 1.38997E-16 2.27000E+00
 -1       368 2.90000E+00-4.95189E-02 2.26946E+00
 -1       369 3.95000E+00-9.90142E-02 2.26784E+00
 -1       370 5.00000E+00-4.95189E-02 2.26946E+00
 -1       371 2.90000E+00-1.97840E-01 2.26136E+00
 -1       372 5.00000E+00-1.97840E-01 2.26136E+00
 -1       373 2.86250E+00-1.91305E-01 2.18665E+00
 -1       374 5.00000E+00-1.91305E-01 2.18665E+00
 -1       375 2.90000E+00-1.48462E-01 2.26514E+00
 -1       376 3.95000E+00-1.97840E-01 2.26136E+00
 -1       377 5.00000E+00-1.48462E-01 2.26514E+00
 -1       378 1.62500E+00 1.20628E-16 1.97000E+00
 -1       379 1.62500E+00-8.59318E-02 1.96812E+00
 -1       380 1.73750E+00 1.29813E-16 2.12000E+00
 -1       381 1.73750E+00-9.24730E-02 2.11798E+00
 -1       382 1.62500E+00-1.71700E-01 1.96250E+00
 -1       383 1.73750E+00-1.84770E-01 2.11193E+00
 -1       384 1.85000E+00 1.38997E-16 2.27000E+00
 -1       385 1.85000E+00-9.90142E-02 2.26784E+00
 -1       386 1.85000E+00-1.97840E-01 2.26136E+00
 -1       387 6.50000E-01-2.76716E-01 2.10186E+00
 -1       388 8.00000E-01-2.96292E-01 2.25058E+00
 -1       389 6.50000E-01-4.65769E-01 3.53786E+00
 -1       390 8.00000E-01-4.74462E-01 3.60390E+00
 -1       391 6.50000E-01-2.30798E-01 2.10740E+00
 -1       392 7.25000E-01-2.86504E-01 2.17622E+00
 -1       393 8.00000E-01-2.47125E-01 2.25651E+00
 -1       394 6.50000E-01-3.71243E-01 2.81986E+00
 -1       395 8.00000E-01-3.85377E-01 2.92724E+00
 -1       396 6.50000E-01-3.88938E-01 3.55135E+00
 -1       397 7.25000E-01-4.70101E-01 3.57077E+00
 -1       398 8.00000E-01-3.95730E-01 3.61339E+00
 -1       399 6.50000E-01-3.68135E-01 2.08779E+00
 -1       400 8.00000E-01-3.94180E-01 2.23551E+00
 -1       401 6.50000E-01-6.18187E-01 3.50591E+00
 -1       402 8.00000E-01-6.31210E-01 3.57978E+00
 -1       403 6.50000E-01-3.22502E-01 2.09532E+00
 -1       404 7.25000E-01-3.81157E-01 2.16165E+00
 -1       405 8.00000E-01-3.45318E-01 2.24358E+00
 -1       406 6.50000E-01-4.93161E-01 2.79685E+00
 -1       407 8.00000E-01-5.12695E-01 2.90764E+00
 -1       408 6.50000E-01-5.42198E-01 3.52271E+00
 -1       409 7.25000E-01-6.24699E-01 3.54285E+00
 -1       410 8.00000E-01-5.52967E-01 3.59269E+00
 -1       411 6.50000E-01-6.52631E-01 4.95722E+00
 -1       412 8.00000E-01-6.52631E-01 4.95722E+00
 -1       413 6.50000E-01-5.59200E-01 4.24754E+00
 -1       414 8.00000E-01-5.63546E-01 4.28056E+00
 -1       415 6.50000E-01-5.44335E-01 4.97028E+00
 -1       416 7.25000E-01-6.52631E-01 4.95722E+00
 -1       417 8.00000E-01-5.44335E-01 4.97028E+00
 -1       418 6.50000E-01-8.68240E-01 4.92404E+00
 -1       419 8.00000E-01-8.68240E-01 4.92404E+00
 -1       420 6.50000E-01-7.43214E-01 4.21498E+00
 -1       421 8.00000E-01-7.49725E-01 4.25191E+00
 -1       422 6.50000E-01-7.60617E-01 4.94181E+00
 -1       423 7.25000E-01-8.68240E-01 4.92404E+00
 -1       424 8.00000E-01-7.60617E-01 4.94181E+00
 -1       425 5.00000E-01-2.57140E-01 1.95314E+00
 -1       426 5.00000E-01-4.57191E-01 3.47269E+00
 -1       427 5.00000E-01-2.14471E-01 1.95829E+00
 -1       428 5.75000E-01-2.66928E-01 2.02750E+00
 -1       429 5.00000E-01-3.57166E-01 2.71292E+00
 -1       430 5.00000E-01-3.82288E-01 3.49062E+00
 -1       431 5.75000E-01-4.61466E-01 3.50517E+00
 -1       432 5.00000E-01-3.42090E-01 1.94007E+00
 -1       433 5.00000E-01-6.05165E-01 3.43205E+00
 -1       434 5.00000E-01-2.99686E-01 1.94707E+00
 -1       435 5.75000E-01-3.55112E-01 2.01393E+00
 -1       436 5.00000E-01-4.73628E-01 2.68606E+00
 -1       437 5.00000E-01-5.31495E-01 3.45317E+00
 -1       438 5.75000E-01-6.11676E-01 3.46899E+00
 -1       439 5.00000E-01-6.52631E-01 4.95722E+00
 -1       440 5.00000E-01-5.54911E-01 4.21496E+00
 -1       441 5.00000E-01-5.44335E-01 4.97028E+00
 -1       442 5.75000E-01-6.52631E-01 4.95722E+00
 -1       443 5.00000E-01-8.68240E-01 4.92404E+00
 -1       444 5.00000E-01-7.36703E-01 4.17805E+00
 -1       445 5.00000E-01-7.60617E-01 4.94181E+00
 -1       446 5.75000E-01-8.68240E-01 4.92404E+00
 -1       447 2.75000E+00-2.57140E-01 1.95314E+00
 -1       448 5.00000E+00-2.57140E-01 1.95314E+00
 -1       449 2.82500E+00-2.76716E-01 2.10186E+00
 -1       450 5.00000E+00-2.76716E-01 2.10186E+00
 -1       451 2.75000E+00-2.14471E-01 1.95829E+00
 -1       452 3.87500E+00-2.57140E-01 1.95314E+00
 -1       453 5.00000E+00-2.14471E-01 1.95829E+00
 -1       454 2.78750E+00-2.66928E-01 2.02750E+00
 -1       455 5.00000E+00-2.66928E-01 2.02750E+00
 -1       456 2.82500E+00-2.30798E-01 2.10740E+00
 -1       457 3.91250E+00-2.76716E-01 2.10186E+00
 -1       458 5.00000E+00-2.30798E-01 2.10740E+00
 -1       459 2.75000E+00-3.42090E-01 1.94007E+00
 -1       460 5.00000E+00-3.42090E-01 1.94007E+00
 -1       461 2.82500E+00-3.68135E-01 2.08779E+00
 -1       462 5.00000E+00-3.68135E-01 2.08779E+00
 -1       463 2.75000E+00-2.99686E-01 1.94707E+00
 -1       464 3.87500E+00-3.42090E-01 1.94007E+00
 -1       465 5.00000E+00-2.99686E-01 1.94707E+00
 -1       466 2.78750E+00-3.55112E-01 2.01393E+00
 -1       467 5.00000E+00-3.55112E-01 2.01393E+00
 -1       468 2.82500E+00-3.22502E-01 2.09532E+00
 -1       469 3.91250E+00-3.68135E-01 2.08779E+00
 -1       470 5.00000E+00-3.22502E-01 2.09532E+00
 -1       471 2.90000E+00-2.96292E-01 2.25058E+00
 -1       472 5.00000E+00-2.96292E-01 2.25058E+00
 -1       473 2.86250E+00-2.86504E-01 2.17622E+00
 -1       474 5.00000E+00-2.86504E-01 2.17622E+00
 -1       475 2.90000E+00-2.47125E-01 2.25651E+00
 -1       476 3.95000E+00-2.96292E-01 2.25058E+00
 -1       477 5.00000E+00-2.47125E-01 2.25651E+00
 -1       478 2.90000E+00-3.94180E-01 2.23551E+00
 -1       479 5.00000E+00-3.94180E-01 2.23551E+00
 -1       480 2.86250E+00-3.81157E-01 2.16165E+00
 -1       481 5.00000E+00-3.81157E-01 2.16165E+00
 -1       482 2.90000E+00-3.45318E-01 2.24358E+00
 -1       483 3.95000E+00-3.94180E-01 2.23551E+00
 -1       484 5.00000E+00-3.45318E-01 2.24358E+00
 -1       485 1.62500E+00-2.57140E-01 1.95314E+00
 -1       486 1.73750E+00-2.76716E-01 2.10186E+00
 -1       487 1.62500E+00-3.42090E-01 1.94007E+00
 -1       488 1.73750E+00-3.68135E-01 2.08779E+00
 -1       489 1.85000E+00-2.96292E-01 2.25058E+00
 -1       490 1.85000E+00-3.94180E-01 2.23551E+00
 -3
    3C                            64                                     1
 -1         1    4    0    1
 -2         1         2         3         4         5         6         7         8         9        10
 -2        11        12        13        14        15        16        17        18        19        20
 -1         2    4    0    1
 -2         4         3        21        22         8         7        23        24        11        25
 -2        26        27        16        15        28        29        19        30        31        32
 -1         3    4    0    1
 -2         5         6         7         8        33        34        35        36        17        18
 -2        19        20        37        38        39        40        41        42        43        44
 -1         4    4    0    1
 -2         8         7        23        24        36        35        45        46        19        30
 -2        31        32        40        39        47        48        43        49        50        51
 -1         5    4    0    1
 -2         2        52        53         3         6        54        55         7        56        57
 -2        58        10        14        59        60        15        61        62        63        18
 -1         6    4    0    1
 -2         3        53        64        21         7        55        65        23        58        66
 -2        67        25        15        60        68        28        63        69        70        30
 -1         7    4    0    1
 -2         6        54        55         7        34        71        72        35        61        62
 -2        63        18        38        73        74        39        75        76        77        42
 -1         8    4    0    1
 -2         7        55        65        23        35        72        78        45        63        69
 -2        70        30        39        74        79        47        77        80        81        49
 -1         9    4    0    1
 -2        71        54        55        72        82        83        84        85        73        62
 -2        74        76        86        87        88        89        90        91        92        93
 -1        10    4    0    1
 -2        72        55        65        78        85        84        94        95        74        69
 -2        79        80        89        88        96        97        92        98        99       100
 -1        11    4    0    1
 -2        82        83        84        85       101       102       103       104        90        91
 -2        92        93       105       106       107       108       109       110       111       112
 -1        12    4    0    1
 -2        85        84        94        95       104       103       113       114        92        98
 -2        99       100       108       107       115       116       111       117       118       119
 -1        13    4    0    1
 -2        54        52        53        55        83       120       121        84        59        57
 -2        60        62        87       122       123        88       124       125       126        91
 -1        14    4    0    1
 -2        55        53        64        65        84       121       127        94        60        66
 -2        68        69        88       123       128        96       126       129       130        98
 -1        15    4    0    1
 -2        83       120       121        84       102       131       132       103       124       125
 -2       126        91       106       133       134       107       135       136       137       110
 -1        16    4    0    1
 -2        84       121       127        94       103       132       138       113       126       129
 -2       130        98       107       134       139       115       137       140       141       117
 -1        17    4    0    1
 -2        22        21       142       143        24        23       144       145        26       146
 -2       147       148        29        28       149       150        31       151       152       153
 -1        18    4    0    1
 -2       143       142       154       155       145       144       156       157       147       158
 -2       159       160       150       149       161       162       152       163       164       165
 -1        19    4    0    1
 -2        24        23       144       145        46        45       166       167        31       151
 -2       152       153        48        47       168       169        50       170       171       172
 -1        20    4    0    1
 -2       145       144       156       157       167       166       173       174       152       163
 -2       164       165       169       168       175       176       171       177       178       179
 -1        21    4    0    1
 -2        21        64       180       142        23        65       181       144        67       182
 -2       183       146        28        68       184       149        70       185       186       151
 -1        22    4    0    1
 -2       142       180       187       154       144       181       188       156       183       189
 -2       190       158       149       184       191       161       186       192       193       163
 -1        23    4    0    1
 -2        23        65       181       144        45        78       194       166        70       185
 -2       186       151        47        79       195       168        81       196       197       170
 -1        24    4    0    1
 -2       144       181       188       156       166       194       198       173       186       192
 -2       193       163       168       195       199       175       197       200       201       177
 -1        25    4    0    1
 -2        78        65       181       194        95        94       202       203        79       185
 -2       195       196        97        96       204       205        99       206       207       208
 -1        26    4    0    1
 -2       194       181       188       198       203       202       209       210       195       192
 -2       199       200       205       204       211       212       207       213       214       215
 -1        27    4    0    1
 -2        95        94       202       203       114       113       216       217        99       206
 -2       207       208       116       115       218       219       118       220       221       222
 -1        28    4    0    1
 -2       203       202       209       210       217       216       223       224       207       213
 -2       214       215       219       218       225       226       221       227       228       229
 -1        29    4    0    1
 -2        65        64       180       181        94       127       230       202        68       182
 -2       184       185        96       128       231       204       130       232       233       206
 -1        30    4    0    1
 -2       181       180       187       188       202       230       234       209       184       189
 -2       191       192       204       231       235       211       233       236       237       213
 -1        31    4    0    1
 -2        94       127       230       202       113       138       238       216       130       232
 -2       233       206       115       139       239       218       141       240       241       220
 -1        32    4    0    1
 -2       202       230       234       209       216       238       242       223       233       236
 -2       237       213       218       239       243       225       241       244       245       227
 -1        33    4    0    1
 -2       246       247       248       249       250       251       252       253       254       255
 -2       256       257       258       259       260       261       262       263       264       265
 -1        34    4    0    1
 -2       249       248       266       267       253       252       268       269       256       270
 -2       271       272       261       260       273       274       264       275       276       277
 -1        35    4    0    1
 -2       250       251       252       253       278       279       280       281       262       263
 -2       264       265       282       283       284       285       286       287       288       289
 -1        36    4    0    1
 -2       253       252       268       269       281       280       290       291       264       275
 -2       276       277       285       284       292       293       288       294       295       296
 -1        37    4    0    1
 -2       247       297       298       248       251       299       300       252       301       302
 -2       303       255       259       304       305       260       306       307       308       263
 -1        38    4    0    1
 -2       248       298       309       266       252       300       310       268       303       311
 -2       312       270       260       305       313       273       308       314       315       275
 -1        39    4    0    1
 -2       251       299       300       252       279       316       317       280       306       307
 -2       308       263       283       318       319       284       320       321       322       287
 -1        40    4    0    1
 -2       252       300       310       268       280       317       323       290       308       314
 -2       315       275       284       319       324       292       322       325       326       294
 -1        41    4    0    1
 -2       327       328       329       330       331       332       333       334       335       336
 -2       337       338       339       340       341       342       343       344       345       346
 -1        42    4    0    1
 -2       330       329       347       348       334       333       349       350       337       351
 -2       352       353       342       341       354       355       345       356       357       358
 -1        43    4    0    1
 -2       331       332       333       334       359       360       361       362       343       344
 -2       345       346       363       364       365       366       367       368       369       370
 -1        44    4    0    1
 -2       334       333       349       350       362       361       371       372       345       356
 -2       357       358       366       365       373       374       369       375       376       377
 -1        45    4    0    1
 -2       328       297       298       329       332       247       248       333       378       302
 -2       379       336       340       301       303       341       380       255       381       344
 -1        46    4    0    1
 -2       329       298       309       347       333       248       266       349       379       311
 -2       382       351       341       303       312       354       381       270       383       356
 -1        47    4    0    1
 -2       332       247       248       333       360       246       249       361       380       255
 -2       381       344       364       254       256       365       384       257       385       368
 -1        48    4    0    1
 -2       333       248       266       349       361       249       267       371       381       270
 -2       383       356       365       256       271       373       385       272       386       375
 -1        49    4    0    1
 -2       267       266       387       388       269       268       389       390       271       391
 -2       392       393       274       273       394       395       276       396       397       398
 -1        50    4    0    1
 -2       388       387       399       400       390       389       401       402       392       403
 -2       404       405       395       394       406       407       397       408       409       410
 -1        51    4    0    1
 -2       269       268       389       390       291       290       411       412       276       396
 -2       397       398       293       292       413       414       295       415       416       417
 -1        52    4    0    1
 -2       390       389       401       402       412       411       418       419       397       408
 -2       409       410       414       413       420       421       416       422       423       424
 -1        53    4    0    1
 -2       266       309       425       387       268       310       426       389       312       427
 -2       428       391       273       313       429       394       315       430       431       396
 -1        54    4    0    1
 -2       387       425       432       399       389       426       433       401       428       434
 -2       435       403       394       429       436       406       431       437       438       408
 -1        55    4    0    1
 -2       268       310       426       389       290       323       439       411       315       430
 -2       431       396       292       324       440       413       326       441       442       415
 -1        56    4    0    1
 -2       389       426       433       401       411       439       443       418       431       437
 -2       438       408       413       440       444       420       442       445       446       422
 -1        57    4    0    1
 -2       348       347       447       448       350       349       449       450       352       451
 -2       452       453       355       354       454       455       357       456       457       458
 -1        58    4    0    1
 -2       448       447       459       460       450       449       461       462       452       463
 -2       464       465       455       454       466       467       457       468       469       470
 -1        59    4    0    1
 -2       350       349       449       450       372       371       471       472       357       456
 -2       457       458       374       373       473       474       376       475       476       477
 -1        60    4    0    1
 -2       450       449       461       462       472       471       478       479       457       468
 -2       469       470       474       473       480       481       476       482       483       484
 -1        61    4    0    1
 -2       347       309       425       447       349       266       387       449       382       427
 -2       485       451       354       312       428       454       383       391       486       456
 -1        62    4    0    1
 -2       447       425       432       459       449       387       399       461       485       434
 -2       487       463       454       428       435       466       486       403       488       468
 -1        63    4    0    1
 -2       349       266       387       449       371       267       388       471       383       391
 -2       486       456       373       271       392       473       386       393       489       475
 -1        64    4    0    1
 -2       449       387       399       461       471       388       400       478       486       403
 -2       488       468       473       392       404       480       489       405       490       482
 -3
    1PSTEP                         1           1           1          
  100CL  101 1.000000000         490                     0    1           1
 -4  DISP        4    1
 -5  D1          1    2    1    0
 -5  D2          1    2    2    0
 -5  D3          1    2    3    0
 -5  ALL         1    2    0    0    1ALL
 -1         1 2.22060E-19 1.76342E-23-3.07569E-19
 -1         2-5.44078E-20 2.94086E-24-8.82372E-20
 -1         3 0.00000E+00 0.00000E+00 0.00000E+00
 -1         4 0.00000E+00 0.00000E+00 0.00000E+00
 -1         5 2.97134E-03-2.16560E-07-5.13298E-03
 -1         6 1.90205E-03-1.54916E-07-2.42172E-03
 -1         7 1.90104E-03 1.07723E-04-2.41973E-03
 -1         8 2.97256E-03 2.26039E-04-5.12891E-03
 -1         9 6.88706E-20 1.86297E-23-1.98498E-19
 -1        10 0.00000E+00 0.00000E+00 0.00000E+00
 -1        11 0.00000E+00 0.00000E+00 0.00000E+00
 -1        12 0.00000E+00 0.00000E+00 0.00000E+00
 -1        13 1.74289E-03 2.52773E-08-2.66839E-03
 -1        14 2.30480E-04-2.54840E-08-1.00281E-03
 -1        15 2.30616E-04 4.48438E-05-1.00234E-03
 -1        16 1.74314E-03 1.17580E-04-2.66558E-03
 -1        17 2.16728E-03-3.54606E-08-3.78807E-03
 -1        18 1.90158E-03 5.37828E-05-2.42101E-03
 -1        19 2.16712E-03 1.63997E-04-3.78490E-03
 -1        20 2.97183E-03 1.12909E-04-5.13222E-03
 -1        21 0.00000E+00 0.00000E+00 0.00000E+00
 -1        22 0.00000E+00 0.00000E+00 0.00000E+00
 -1        23 1.90016E-03 2.11275E-04-2.41358E-03
 -1        24 2.97376E-03 4.47609E-04-5.11445E-03
 -1        25 0.00000E+00 0.00000E+00 0.00000E+00
 -1        26 0.00000E+00 0.00000E+00 0.00000E+00
 -1        27 0.00000E+00 0.00000E+00 0.00000E+00
 -1        28 2.30919E-04 8.75667E-05-1.00026E-03
 -1        29 1.74354E-03 2.32613E-04-2.65829E-03
 -1        30 1.90057E-03 1.59528E-04-2.41702E-03
 -1        31 2.16663E-03 3.30188E-04-3.77324E-03
 -1        32 2.97327E-03 3.36896E-04-5.12312E-03
 -1        33 8.47820E-03 2.16358E-07-1.03252E-02
 -1        34 7.21773E-03 7.03525E-08-6.25498E-03
 -1        35 7.21825E-03 2.74665E-04-6.25165E-03
 -1        36 8.48055E-03 4.52340E-04-1.03210E-02
 -1        37 5.22606E-03 2.95077E-07-7.76552E-03
 -1        38 3.66204E-03 2.86248E-07-3.88962E-03
 -1        39 3.66247E-03 1.72477E-04-3.88546E-03
 -1        40 5.22677E-03 3.40310E-04-7.75842E-03
 -1        41 7.82985E-03-2.74717E-07-8.33236E-03
 -1        42 7.21844E-03 1.37357E-04-6.25607E-03
 -1        43 7.83012E-03 3.62695E-04-8.32717E-03
 -1        44 8.47910E-03 2.26440E-04-1.03254E-02
 -1        45 7.21736E-03 5.45571E-04-6.23455E-03
 -1        46 8.48049E-03 8.99986E-04-1.02872E-02
 -1        47 3.66237E-03 3.38856E-04-3.87391E-03
 -1        48 5.22749E-03 6.76865E-04-7.73703E-03
 -1        49 7.21747E-03 4.10154E-04-6.24525E-03
 -1        50 7.82998E-03 7.26596E-04-8.30289E-03
 -1        51 8.48080E-03 6.76248E-04-1.03055E-02
 -1        52 3.80004E-19 5.10123E-24 3.78797E-19
 -1        53 0.00000E+00 0.00000E+00 0.00000E+00
 -1        54 1.47621E-03-5.06272E-08 3.29942E-05
 -1        55 1.47371E-03 1.12423E-06 3.31442E-05
 -1        56-2.44605E-20 7.48426E-24-2.57382E-21
 -1        57 0.00000E+00 0.00000E+00 0.00000E+00
 -1        58 0.00000E+00 0.00000E+00 0.00000E+00
 -1        59 4.62370E-04-3.25429E-08 2.78776E-04
 -1        60 4.58088E-04-1.09430E-05 2.80812E-04
 -1        61 1.55190E-03 4.53342E-08-9.87022E-04
 -1        62 1.47494E-03 5.02867E-07 3.34264E-05
 -1        63 1.55327E-03 4.19303E-05-9.86548E-04
 -1        64 0.00000E+00 0.00000E+00 0.00000E+00
 -1        65 1.47282E-03-2.88459E-06 3.36412E-05
 -1        66 0.00000E+00 0.00000E+00 0.00000E+00
 -1        67 0.00000E+00 0.00000E+00 0.00000E+00
 -1        68 4.54190E-04-2.46423E-05 2.82151E-04
 -1        69 1.47329E-03-9.44399E-07 3.36389E-05
 -1        70 1.55476E-03 8.60826E-05-9.83699E-04
 -1        71 5.71692E-03 2.26634E-07-1.84667E-03
 -1        72 5.70976E-03 8.72948E-05-1.84729E-03
 -1        73 3.54777E-03 1.33238E-07-7.72210E-04
 -1        74 3.54161E-03 3.60244E-05-7.71809E-04
 -1        75 6.31602E-03-1.90902E-07-4.09309E-03
 -1        76 5.71257E-03 4.38203E-05-1.84870E-03
 -1        77 6.31276E-03 1.77035E-04-4.09194E-03
 -1        78 5.69508E-03 1.61501E-04-1.84573E-03
 -1        79 3.53116E-03 6.74672E-05-7.70910E-04
 -1        80 5.70272E-03 1.24428E-04-1.84784E-03
 -1        81 6.31080E-03 3.57313E-04-4.08215E-03
 -1        82 1.81215E-02 2.63531E-07-1.70973E-03
 -1        83 1.60158E-02 1.40208E-08-8.09200E-05
 -1        84 1.61928E-02 4.68040E-06-7.91878E-05
 -1        85 1.83922E-02 7.44860E-05-1.67613E-03
 -1        86 1.18058E-02-5.58656E-08-2.22439E-03
 -1        87 8.60165E-03 1.04995E-07-1.08413E-07
 -1        88 8.68889E-03-6.15176E-07-1.11148E-06
 -1        89 1.19609E-02 9.52387E-05-2.22035E-03
 -1        90 1.70974E-02 1.24297E-07-9.62143E-04
 -1        91 1.61044E-02 2.35400E-06-8.01352E-05
 -1        92 1.73301E-02 4.40030E-05-9.48653E-04
 -1        93 1.82577E-02 3.75098E-05-1.69325E-03
 -1        94 1.63721E-02 6.86067E-06-7.69393E-05
 -1        95 1.86406E-02 1.43710E-04-1.64165E-03
 -1        96 8.77533E-03 2.39462E-07-2.19083E-06
 -1        97 1.21217E-02 1.93519E-04-2.21054E-03
 -1        98 1.62824E-02 5.83237E-06-7.82225E-05
 -1        99 1.75540E-02 8.18163E-05-9.33857E-04
 -1       100 1.85171E-02 1.09360E-04-1.65875E-03
 -1       101 2.72177E-02 2.49022E-07-1.44241E-03
 -1       102 2.67837E-02 5.95774E-08-7.99415E-05
 -1       103 2.68087E-02 4.26944E-06-7.53361E-05
 -1       104 2.72790E-02 6.37341E-05-1.45226E-03
 -1       105 2.25987E-02 7.09441E-08-1.51772E-03
 -1       106 2.20381E-02 1.51412E-07 1.89247E-06
 -1       107 2.20884E-02-5.05331E-07 1.07890E-06
 -1       108 2.26746E-02 6.61815E-05-1.51726E-03
 -1       109 2.69850E-02 1.60440E-07-7.12074E-04
 -1       110 2.67962E-02 2.17831E-06-7.80335E-05
 -1       111 2.70255E-02 3.09283E-05-7.08632E-04
 -1       112 2.72480E-02 3.18572E-05-1.44653E-03
 -1       113 2.68394E-02 6.31613E-06-7.02438E-05
 -1       114 2.73260E-02 1.27749E-04-1.45839E-03
 -1       115 2.21356E-02 9.29980E-08 3.99119E-08
 -1       116 2.27575E-02 1.32529E-04-1.51361E-03
 -1       117 2.68241E-02 5.23121E-06-7.23041E-05
 -1       118 2.70610E-02 6.17753E-05-7.04284E-04
 -1       119 2.73021E-02 9.56710E-05-1.45703E-03
 -1       120 1.44366E-02 7.65830E-08 2.06908E-03
 -1       121 1.44297E-02-8.58094E-05 2.06782E-03
 -1       122 5.22720E-03 6.07258E-08 1.95269E-03
 -1       123 5.22694E-03-8.55465E-05 1.95278E-03
 -1       124 1.52747E-02 4.81091E-08 9.30903E-04
 -1       125 1.44333E-02-4.28250E-05 2.06916E-03
 -1       126 1.53689E-02-3.77755E-05 9.27716E-04
 -1       127 1.44216E-02-1.80312E-04 2.06193E-03
 -1       128 5.22686E-03-1.70511E-04 1.94944E-03
 -1       129 1.44255E-02-1.33061E-04 2.06545E-03
 -1       130 1.54641E-02-8.06150E-05 9.22609E-04
 -1       131 2.70305E-02 1.42353E-07 1.39630E-03
 -1       132 2.70180E-02-5.45537E-05 1.39845E-03
 -1       133 2.11561E-02 1.07755E-07 1.47102E-03
 -1       134 2.11630E-02-6.79037E-05 1.46834E-03
 -1       135 2.68827E-02 9.92739E-08 6.67680E-04
 -1       136 2.70239E-02-2.73876E-05 1.39718E-03
 -1       137 2.68871E-02-2.52790E-05 6.73247E-04
 -1       138 2.70039E-02-1.22109E-04 1.39718E-03
 -1       139 2.11708E-02-1.27906E-04 1.46326E-03
 -1       140 2.70112E-02-8.85414E-05 1.39835E-03
 -1       141 2.68933E-02-5.91249E-05 6.77527E-04
 -1       142 0.00000E+00 0.00000E+00 0.00000E+00
 -1       143 0.00000E+00 0.00000E+00 0.00000E+00
 -1       144 1.90109E-03 3.14276E-04-2.40184E-03
 -1       145 2.97242E-03 6.68187E-04-5.09036E-03
 -1       146 0.00000E+00 0.00000E+00 0.00000E+00
 -1       147 0.00000E+00 0.00000E+00 0.00000E+00
 -1       148 0.00000E+00 0.00000E+00 0.00000E+00
 -1       149 2.30618E-04 1.29986E-04-9.94958E-04
 -1       150 1.74321E-03 3.47223E-04-2.64563E-03
 -1       151 1.90059E-03 2.62821E-04-2.40817E-03
 -1       152 2.16702E-03 4.95765E-04-3.75563E-03
 -1       153 2.97320E-03 5.58058E-04-5.10367E-03
 -1       154 0.00000E+00 0.00000E+00 0.00000E+00
 -1       155 0.00000E+00 0.00000E+00 0.00000E+00
 -1       156 1.90209E-03 4.20381E-04-2.38497E-03
 -1       157 2.97135E-03 8.91133E-04-5.05507E-03
 -1       158 0.00000E+00 0.00000E+00 0.00000E+00
 -1       159 0.00000E+00 0.00000E+00 0.00000E+00
 -1       160 0.00000E+00 0.00000E+00 0.00000E+00
 -1       161 2.30491E-04 1.74114E-04-9.87588E-04
 -1       162 1.74291E-03 4.63395E-04-2.62788E-03
 -1       163 1.90162E-03 3.67423E-04-2.39397E-03
 -1       164 2.16731E-03 6.57766E-04-3.73055E-03
 -1       165 2.97179E-03 7.79895E-04-5.07405E-03
 -1       166 7.21854E-03 8.15122E-04-6.20417E-03
 -1       167 8.47936E-03 1.34630E-03-1.02391E-02
 -1       168 3.66241E-03 5.04794E-04-3.85619E-03
 -1       169 5.22697E-03 1.01203E-03-7.69933E-03
 -1       170 7.21762E-03 6.80627E-04-6.22087E-03
 -1       171 7.82982E-03 1.08908E-03-8.26314E-03
 -1       172 8.48019E-03 1.12337E-03-1.02654E-02
 -1       173 7.21782E-03 1.08625E-03-6.15998E-03
 -1       174 8.47828E-03 1.79319E-03-1.01684E-02
 -1       175 3.66208E-03 6.75717E-04-3.83050E-03
 -1       176 5.22611E-03 1.34878E-03-7.64754E-03
 -1       177 7.21866E-03 9.50908E-04-6.18311E-03
 -1       178 7.82994E-03 1.44665E-03-8.20586E-03
 -1       179 8.47841E-03 1.56995E-03-1.02056E-02
 -1       180 0.00000E+00 0.00000E+00 0.00000E+00
 -1       181 1.47367E-03-6.73876E-06 3.24475E-05
 -1       182 0.00000E+00 0.00000E+00 0.00000E+00
 -1       183 0.00000E+00 0.00000E+00 0.00000E+00
 -1       184 4.58068E-04-3.79185E-05 2.78427E-04
 -1       185 1.47327E-03-4.77883E-06 3.31732E-05
 -1       186 1.55333E-03 1.30068E-04-9.78831E-04
 -1       187 0.00000E+00 0.00000E+00 0.00000E+00
 -1       188 1.47623E-03-5.77937E-06 3.24846E-05
 -1       189 0.00000E+00 0.00000E+00 0.00000E+00
 -1       190 0.00000E+00 0.00000E+00 0.00000E+00
 -1       191 4.62381E-04-4.84419E-05 2.74538E-04
 -1       192 1.47493E-03-6.24605E-06 3.25610E-05
 -1       193 1.55193E-03 1.71441E-04-9.72024E-04
 -1       194 5.70985E-03 2.34825E-04-1.83479E-03
 -1       195 3.54166E-03 9.85795E-05-7.66456E-04
 -1       196 5.70276E-03 1.98294E-04-1.84092E-03
 -1       197 6.31288E-03 5.36482E-04-4.06059E-03
 -1       198 5.71695E-03 3.20894E-04-1.81856E-03
 -1       199 3.54781E-03 1.34225E-04-7.60452E-04
 -1       200 5.71265E-03 2.77882E-04-1.82697E-03
 -1       201 6.31608E-03 7.10577E-04-4.03095E-03
 -1       202 1.61928E-02 9.38372E-06-7.88613E-05
 -1       203 1.83923E-02 2.17754E-04-1.66356E-03
 -1       204 8.68892E-03 8.91681E-07-8.84162E-07
 -1       205 1.19609E-02 2.92033E-04-2.20318E-03
 -1       206 1.62823E-02 8.08567E-06-7.80187E-05
 -1       207 1.73301E-02 1.21553E-04-9.41901E-04
 -1       208 1.85171E-02 1.80473E-04-1.65275E-03
 -1       209 1.60158E-02 1.40655E-05-7.96885E-05
 -1       210 1.81216E-02 2.97151E-04-1.68371E-03
 -1       211 8.60168E-03 1.22259E-07-8.87234E-08
 -1       212 1.18058E-02 3.86208E-04-2.19061E-03
 -1       213 1.61044E-02 1.17150E-05-7.92607E-05
 -1       214 1.70974E-02 1.67197E-04-9.47503E-04
 -1       215 1.82578E-02 2.57456E-04-1.67447E-03
 -1       216 2.68086E-02 9.18345E-06-7.48114E-05
 -1       217 2.72791E-02 1.89589E-04-1.44147E-03
 -1       218 2.20884E-02 5.16466E-07 1.14681E-06
 -1       219 2.26746E-02 1.98570E-04-1.50557E-03
 -1       220 2.68241E-02 7.72607E-06-7.20653E-05
 -1       221 2.70255E-02 9.28306E-05-7.03269E-04
 -1       222 2.73022E-02 1.59026E-04-1.45146E-03
 -1       223 2.67837E-02 1.39404E-05-7.87169E-05
 -1       224 2.72177E-02 2.50718E-04-1.42046E-03
 -1       225 2.20381E-02-1.79513E-07 1.89002E-06
 -1       226 2.25987E-02 2.63620E-04-1.49465E-03
 -1       227 2.67962E-02 1.16274E-05-7.72022E-05
 -1       228 2.69850E-02 1.23808E-04-7.01228E-04
 -1       229 2.72480E-02 2.20100E-04-1.42990E-03
 -1       230 1.44296E-02-2.74411E-04 2.05136E-03
 -1       231 5.22696E-03-2.54743E-04 1.93794E-03
 -1       232 1.44255E-02-2.27463E-04 2.05722E-03
 -1       233 1.53689E-02-1.23698E-04 9.20190E-04
 -1       234 1.44366E-02-3.59216E-04 2.03766E-03
 -1       235 5.22722E-03-3.39022E-04 1.92303E-03
 -1       236 1.44333E-02-3.16978E-04 2.04521E-03
 -1       237 1.52747E-02-1.61602E-04 9.16768E-04
 -1       238 2.70180E-02-1.88848E-04 1.38672E-03
 -1       239 2.11630E-02-1.87884E-04 1.45785E-03
 -1       240 2.70112E-02-1.55365E-04 1.39251E-03
 -1       241 2.68871E-02-9.17257E-05 6.67483E-04
 -1       242 2.70305E-02-2.42325E-04 1.37511E-03
 -1       243 2.11561E-02-2.55333E-04 1.44869E-03
 -1       244 2.70239E-02-2.15373E-04 1.38075E-03
 -1       245 2.68827E-02-1.15844E-04 6.57554E-04
 -1       246 4.37894E-03 1.43271E-07 2.10672E-02
 -1       247 2.51269E-03 2.59339E-07 2.40116E-02
 -1       248 2.51524E-03-1.04594E-03 2.39871E-02
 -1       249 4.37695E-03-9.19152E-04 2.10466E-02
 -1       250 1.81856E-02 7.13130E-08 1.52519E-02
 -1       251 1.76066E-02 3.97646E-07 1.66348E-02
 -1       252 1.76775E-02-7.21460E-04 1.65967E-02
 -1       253 1.81839E-02-6.64417E-04 1.52370E-02
 -1       254 3.46087E-03 1.77010E-07 2.24780E-02
 -1       255 2.51403E-03-5.22969E-04 2.40041E-02
 -1       256 3.46077E-03-9.80029E-04 2.24556E-02
 -1       257 4.37798E-03-4.59666E-04 2.10619E-02
 -1       258 1.20319E-02 1.48781E-07 1.73102E-02
 -1       259 1.10578E-02-8.41708E-08 1.93653E-02
 -1       260 1.10996E-02-8.44920E-04 1.93278E-02
 -1       261 1.20331E-02-7.54665E-04 1.72944E-02
 -1       262 1.78925E-02 2.50109E-07 1.59462E-02
 -1       263 1.76420E-02-3.60867E-04 1.66198E-02
 -1       264 1.79261E-02-6.93186E-04 1.59208E-02
 -1       265 1.81845E-02-3.32158E-04 1.52480E-02
 -1       266 2.51412E-03-2.09252E-03 2.39167E-02
 -1       267 4.37588E-03-1.83593E-03 2.09861E-02
 -1       268 1.77458E-02-1.44594E-03 1.65271E-02
 -1       269 1.81829E-02-1.32910E-03 1.51935E-02
 -1       270 2.51454E-03-1.56969E-03 2.39570E-02
 -1       271 3.45956E-03-1.95883E-03 2.23905E-02
 -1       272 4.37644E-03-1.37788E-03 2.10212E-02
 -1       273 1.11434E-02-1.68428E-03 1.92533E-02
 -1       274 1.20338E-02-1.50872E-03 1.72457E-02
 -1       275 1.77121E-02-1.08403E-03 1.65659E-02
 -1       276 1.79584E-02-1.38795E-03 1.58652E-02
 -1       277 1.81835E-02-9.96931E-04 1.52187E-02
 -1       278 2.95257E-02 1.45575E-07 1.32431E-02
 -1       279 2.96053E-02 3.92314E-07 1.43433E-02
 -1       280 2.96010E-02-6.22196E-04 1.43298E-02
 -1       281 2.95218E-02-5.77747E-04 1.32332E-02
 -1       282 2.39656E-02 1.75791E-07 1.39044E-02
 -1       283 2.38001E-02 5.84525E-08 1.52498E-02
 -1       284 2.38369E-02-6.66400E-04 1.52287E-02
 -1       285 2.39672E-02-6.06467E-04 1.38908E-02
 -1       286 2.95666E-02 2.61678E-07 1.37930E-02
 -1       287 2.96032E-02-3.10923E-04 1.43398E-02
 -1       288 2.95626E-02-5.99873E-04 1.37810E-02
 -1       289 2.95239E-02-2.88944E-04 1.32410E-02
 -1       290 2.95943E-02-1.24991E-03 1.42873E-02
 -1       291 2.95186E-02-1.15455E-03 1.31990E-02
 -1       292 2.38750E-02-1.32780E-03 1.51794E-02
 -1       293 2.39685E-02-1.21160E-03 1.38504E-02
 -1       294 2.95974E-02-9.36288E-04 1.43119E-02
 -1       295 2.95578E-02-1.20217E-03 1.37425E-02
 -1       296 2.95201E-02-8.66435E-04 1.32195E-02
 -1       297 2.98678E-04-6.13426E-07 2.81476E-02
 -1       298 3.01872E-04-1.22778E-03 2.81211E-02
 -1       299 1.69771E-02-1.24910E-07 1.83306E-02
 -1       300 1.71157E-02-8.03659E-04 1.82726E-02
 -1       301 1.44386E-03 2.99621E-07 2.59839E-02
 -1       302 3.00319E-04-6.14390E-04 2.81431E-02
 -1       303 1.44587E-03-1.13310E-03 2.59585E-02
 -1       304 1.00951E-02 1.93368E-07 2.13916E-02
 -1       305 1.01906E-02-9.30126E-04 2.13161E-02
 -1       306 1.72847E-02 2.25570E-08 1.74911E-02
 -1       307 1.70461E-02-4.02805E-04 1.83048E-02
 -1       308 1.73885E-02-7.62542E-04 1.74442E-02
 -1       309 3.19139E-04-2.45237E-03 2.80347E-02
 -1       310 1.72754E-02-1.59007E-03 1.81792E-02
 -1       311 3.10704E-04-1.84058E-03 2.80849E-02
 -1       312 1.45250E-03-2.26422E-03 2.58814E-02
 -1       313 1.02778E-02-1.85508E-03 2.12026E-02
 -1       314 1.71947E-02-1.19786E-03 1.82296E-02
 -1       315 1.75014E-02-1.51893E-03 1.73638E-02
 -1       316 2.96575E-02-1.63681E-07 1.55954E-02
 -1       317 2.96387E-02-6.88023E-04 1.55788E-02
 -1       318 2.36623E-02 3.19975E-07 1.65135E-02
 -1       319 2.37454E-02-7.15112E-04 1.64805E-02
 -1       320 2.96316E-02 1.68069E-07 1.49672E-02
 -1       321 2.96483E-02-3.43835E-04 1.55916E-02
 -1       322 2.96200E-02-6.55251E-04 1.49525E-02
 -1       323 2.96373E-02-1.35872E-03 1.55358E-02
 -1       324 2.38199E-02-1.43620E-03 1.64159E-02
 -1       325 2.96383E-02-1.02333E-03 1.55609E-02
 -1       326 2.96159E-02-1.30412E-03 1.49094E-02
 -1       327 1.22559E-19 1.86894E-23-4.02646E-19
 -1       328-1.25279E-03 2.98977E-08 6.44885E-04
 -1       329-1.25215E-03-2.85613E-05 6.44108E-04
 -1       330 0.00000E+00 0.00000E+00 0.00000E+00
 -1       331 4.01023E-20 6.58796E-25-3.35477E-19
 -1       332-3.12284E-04 5.92473E-08-6.51197E-05
 -1       333-3.11218E-04 3.39621E-06-6.60932E-05
 -1       334 0.00000E+00 0.00000E+00 0.00000E+00
 -1       335 2.38761E-04 9.16438E-08-1.65214E-03
 -1       336-1.25248E-03-1.42425E-05 6.43572E-04
 -1       337 2.38610E-04 7.22901E-05-1.65052E-03
 -1       338 0.00000E+00 0.00000E+00 0.00000E+00
 -1       339 8.22514E-20 5.70968E-24-3.69252E-19
 -1       340-7.65954E-04-2.74828E-08 2.86449E-04
 -1       341-7.64878E-04-1.23342E-05 2.85542E-04
 -1       342 0.00000E+00 0.00000E+00 0.00000E+00
 -1       343 1.02534E-04 1.77788E-08-1.52714E-03
 -1       344-3.11768E-04 1.74324E-06-6.58761E-05
 -1       345 1.02151E-04 6.65010E-05-1.52543E-03
 -1       346 0.00000E+00 0.00000E+00 0.00000E+00
 -1       347-1.24507E-03-5.58565E-05 6.39937E-04
 -1       348 0.00000E+00 0.00000E+00 0.00000E+00
 -1       349-3.11836E-04 5.89031E-06-6.66171E-05
 -1       350 0.00000E+00 0.00000E+00 0.00000E+00
 -1       351-1.24866E-03-4.21640E-05 6.41430E-04
 -1       352 2.36789E-04 1.43942E-04-1.64523E-03
 -1       353 0.00000E+00 0.00000E+00 0.00000E+00
 -1       354-7.61298E-04-2.46460E-05 2.82985E-04
 -1       355 0.00000E+00 0.00000E+00 0.00000E+00
 -1       356-3.11492E-04 4.69816E-06-6.66968E-05
 -1       357 1.02142E-04 1.33098E-04-1.52072E-03
 -1       358 0.00000E+00 0.00000E+00 0.00000E+00
 -1       359-4.80394E-20 1.97707E-25-2.95387E-19
 -1       360 4.82862E-04 1.17362E-07-4.09789E-04
 -1       361 4.81891E-04 1.76974E-05-4.09831E-04
 -1       362 0.00000E+00 0.00000E+00 0.00000E+00
 -1       363-2.78771E-21 7.51134E-25-3.15820E-19
 -1       364 1.06592E-04 9.37921E-08-2.44452E-04
 -1       365 1.06727E-04 1.08900E-05-2.44973E-04
 -1       366 0.00000E+00 0.00000E+00 0.00000E+00
 -1       367-9.56345E-05 3.02309E-08-1.43275E-03
 -1       368 4.82370E-04 8.93043E-06-4.10290E-04
 -1       369-9.54815E-05 6.25672E-05-1.43121E-03
 -1       370 0.00000E+00 0.00000E+00 0.00000E+00
 -1       371 4.81454E-04 3.58386E-05-4.09073E-04
 -1       372 0.00000E+00 0.00000E+00 0.00000E+00
 -1       373 1.06218E-04 2.14696E-05-2.44885E-04
 -1       374 0.00000E+00 0.00000E+00 0.00000E+00
 -1       375 4.81667E-04 2.68027E-05-4.09918E-04
 -1       376-9.53896E-05 1.24884E-04-1.42700E-03
 -1       377 0.00000E+00 0.00000E+00 0.00000E+00
 -1       378-1.01699E-03-4.24323E-08 1.09727E-02
 -1       379-1.01753E-03-4.78260E-04 1.09627E-02
 -1       380 6.18620E-04 9.54096E-08 9.55489E-03
 -1       381 6.17924E-04-4.17035E-04 9.54662E-03
 -1       382-1.02282E-03-9.56516E-04 1.09331E-02
 -1       383 6.18558E-04-8.32815E-04 9.51968E-03
 -1       384 2.05704E-03 2.95718E-08 8.19577E-03
 -1       385 2.05788E-03-3.57190E-04 8.18821E-03
 -1       386 2.05823E-03-7.14252E-04 8.16513E-03
 -1       387 2.51529E-03-3.13493E-03 2.38035E-02
 -1       388 4.37692E-03-2.74918E-03 2.08867E-02
 -1       389 1.76776E-02-2.17142E-03 1.64698E-02
 -1       390 1.81841E-02-1.99117E-03 1.51210E-02
 -1       391 2.51455E-03-2.61419E-03 2.38654E-02
 -1       392 3.46074E-03-2.93397E-03 2.22844E-02
 -1       393 4.37642E-03-2.29307E-03 2.09411E-02
 -1       394 1.10996E-02-2.52382E-03 1.91810E-02
 -1       395 1.20330E-02-2.25978E-03 1.71628E-02
 -1       396 1.77122E-02-1.80903E-03 1.65023E-02
 -1       397 1.79262E-02-2.08172E-03 1.57992E-02
 -1       398 1.81836E-02-1.66055E-03 1.51607E-02
 -1       399 2.51266E-03-4.16934E-03 2.36469E-02
 -1       400 4.37890E-03-3.65813E-03 2.07472E-02
 -1       401 1.76066E-02-2.88821E-03 1.63821E-02
 -1       402 1.81856E-02-2.64840E-03 1.50203E-02
 -1       403 2.51408E-03-3.65291E-03 2.37304E-02
 -1       404 3.46083E-03-3.90310E-03 2.21366E-02
 -1       405 4.37789E-03-3.20430E-03 2.08217E-02
 -1       406 1.10578E-02-3.36284E-03 1.90711E-02
 -1       407 1.20318E-02-3.00574E-03 1.70473E-02
 -1       408 1.76420E-02-2.53017E-03 1.64299E-02
 -1       409 1.78925E-02-2.76878E-03 1.57040E-02
 -1       410 1.81846E-02-2.32044E-03 1.50742E-02
 -1       411 2.96011E-02-1.87533E-03 1.42199E-02
 -1       412 2.95220E-02-1.72848E-03 1.31325E-02
 -1       413 2.38369E-02-1.98780E-03 1.51133E-02
 -1       414 2.39672E-02-1.81459E-03 1.37851E-02
 -1       415 2.95975E-02-1.56297E-03 1.42570E-02
 -1       416 2.95627E-02-1.80192E-03 1.36757E-02
 -1       417 2.95202E-02-1.44182E-03 1.31691E-02
 -1       418 2.96053E-02-2.49030E-03 1.41254E-02
 -1       419 2.95257E-02-2.29949E-03 1.30419E-02
 -1       420 2.38001E-02-2.64804E-03 1.50181E-02
 -1       421 2.39656E-02-2.41429E-03 1.36932E-02
 -1       422 2.96033E-02-2.18337E-03 1.41759E-02
 -1       423 2.95666E-02-2.39487E-03 1.35835E-02
 -1       424 2.95240E-02-2.01434E-03 1.30901E-02
 -1       425 3.02214E-04-3.67342E-03 2.79069E-02
 -1       426 1.71160E-02-2.38129E-03 1.81340E-02
 -1       427 3.10927E-04-3.06350E-03 2.79770E-02
 -1       428 1.44601E-03-3.39172E-03 2.57603E-02
 -1       429 1.01904E-02-2.78536E-03 2.11544E-02
 -1       430 1.71949E-02-1.98538E-03 1.81607E-02
 -1       431 1.73887E-02-2.27793E-03 1.73113E-02
 -1       432 2.98667E-04-4.88842E-03 2.77198E-02
 -1       433 1.69771E-02-3.18321E-03 1.80521E-02
 -1       434 3.00398E-04-4.28184E-03 2.78192E-02
 -1       435 1.44383E-03-4.51180E-03 2.55892E-02
 -1       436 1.00951E-02-3.71444E-03 2.10666E-02
 -1       437 1.70463E-02-2.78205E-03 1.80973E-02
 -1       438 1.72847E-02-3.03727E-03 1.72253E-02
 -1       439 2.96388E-02-2.02727E-03 1.54619E-02
 -1       440 2.37453E-02-2.15726E-03 1.63542E-02
 -1       441 2.96383E-02-1.69365E-03 1.55022E-02
 -1       442 2.96201E-02-1.95090E-03 1.48392E-02
 -1       443 2.96575E-02-2.70828E-03 1.53585E-02
 -1       444 2.36623E-02-2.86722E-03 1.62626E-02
 -1       445 2.96484E-02-2.36872E-03 1.54141E-02
 -1       446 2.96316E-02-2.59886E-03 1.47399E-02
 -1       447-1.25200E-03-8.35245E-05 6.38874E-04
 -1       448 0.00000E+00 0.00000E+00 0.00000E+00
 -1       449-3.11189E-04 8.24237E-06-6.56673E-05
 -1       450 0.00000E+00 0.00000E+00 0.00000E+00
 -1       451-1.24860E-03-6.96669E-05 6.39048E-04
 -1       452 2.38566E-04 2.15452E-04-1.63801E-03
 -1       453 0.00000E+00 0.00000E+00 0.00000E+00
 -1       454-7.64787E-04-3.72307E-05 2.83183E-04
 -1       455 0.00000E+00 0.00000E+00 0.00000E+00
 -1       456-3.11473E-04 7.07885E-06-6.65461E-05
 -1       457 1.02138E-04 1.99458E-04-1.51370E-03
 -1       458 0.00000E+00 0.00000E+00 0.00000E+00
 -1       459-1.25279E-03-1.11955E-04 6.35094E-04
 -1       460 0.00000E+00 0.00000E+00 0.00000E+00
 -1       461-3.12297E-04 1.13666E-05-6.41219E-05
 -1       462 0.00000E+00 0.00000E+00 0.00000E+00
 -1       463-1.25239E-03-9.76823E-05 6.36650E-04
 -1       464 2.38762E-04 2.86983E-04-1.62702E-03
 -1       465 0.00000E+00 0.00000E+00 0.00000E+00
 -1       466-7.65964E-04-4.97692E-05 2.82095E-04
 -1       467 0.00000E+00 0.00000E+00 0.00000E+00
 -1       468-3.11770E-04 9.85089E-06-6.52631E-05
 -1       469 1.02536E-04 2.65203E-04-1.50394E-03
 -1       470 0.00000E+00 0.00000E+00 0.00000E+00
 -1       471 4.81856E-04 5.38619E-05-4.06666E-04
 -1       472 0.00000E+00 0.00000E+00 0.00000E+00
 -1       473 1.06735E-04 3.19404E-05-2.43155E-04
 -1       474 0.00000E+00 0.00000E+00 0.00000E+00
 -1       475 4.81649E-04 4.49000E-05-4.08302E-04
 -1       476-9.54832E-05 1.86973E-04-1.42034E-03
 -1       477 0.00000E+00 0.00000E+00 0.00000E+00
 -1       478 4.82862E-04 7.12746E-05-4.03543E-04
 -1       479 0.00000E+00 0.00000E+00 0.00000E+00
 -1       480 1.06575E-04 4.25416E-05-2.40725E-04
 -1       481 0.00000E+00 0.00000E+00 0.00000E+00
 -1       482 4.82363E-04 6.26174E-05-4.05548E-04
 -1       483-9.56345E-05 2.48824E-04-1.41098E-03
 -1       484 0.00000E+00 0.00000E+00 0.00000E+00
 -1       485-1.01761E-03-1.43248E-03 1.08796E-02
 -1       486 6.17886E-04-1.24684E-03 9.47390E-03
 -1       487-1.01699E-03-1.90545E-03 1.08060E-02
 -1       488 6.18595E-04-1.65910E-03 9.40975E-03
 -1       489 2.05790E-03-1.06990E-03 8.12589E-03
 -1       490 2.05704E-03-1.42315E-03 8.07126E-03
 -3
    1PSTEP                         2           1           1          
  100CL  101 1.000000000         490                     0    1           1
 -4  STRESS      6    1
 -5  SXX         1    4    1    1
 -5  SYY         1    4    2    2
 -5  SZZ         1    4    3    3
 -5  SXY         1    4    1    2
 -5  SYZ         1    4    2    3
 -5  SZX         1    4    3    1
 -1         1-1.08882E+03-1.31344E+03-3.05128E+03 3.68593E-01-7.14741E-01 6.08751E+02
 -1         2-2.87424E+02-3.34069E+02-8.32216E+02-7.65249E-01 5.95594E-01-1.78268E+02
 -1         3-2.87173E+02-3.35193E+02-8.31859E+02 6.97972E+00 2.22339E+01-1.77868E+02
 -1         4-1.08873E+03-1.31624E+03-3.04700E+03-2.64908E+01 7.55986E+01 6.08239E+02
 -1         5 2.58184E+02-1.41713E+03-2.46893E+03-2.80452E-01-1.52687E-01-1.76074E+02
 -1         6-2.55473E+02-6.85315E+02-9.70467E+02-7.00435E-01-9.65574E-01-1.48314E+02
 -1         7-2.58072E+02-6.86523E+02-9.69528E+02 6.33214E+00 1.24767E+01-1.47708E+02
 -1         8 2.59769E+02-1.41942E+03-2.46552E+03 8.97146E+00 4.56692E+01-1.76090E+02
 -1         9-5.54112E+02-7.69958E+02-1.89507E+03-1.43626E-01-7.11260E-02 1.93828E+02
 -1        10-2.87281E+02-3.34587E+02-8.32024E+02 3.13103E+00 1.13197E+01-1.78066E+02
 -1        11-5.54484E+02-7.72165E+02-1.89300E+03-8.70817E+00 4.92010E+01 1.93840E+02
 -1        12-1.08886E+03-1.31503E+03-3.04924E+03-1.30178E+01 3.72232E+01 6.08491E+02
 -1        13-3.32516E+02-1.31535E+03-2.65462E+03-9.50359E-02-9.60680E-02 1.44005E+02
 -1        14-2.61386E+02-5.46974E+02-1.01817E+03-7.08511E-01 5.01651E-02-5.77882E+01
 -1        15-2.62802E+02-5.49044E+02-1.01813E+03 2.05712E+00 2.11036E+01-5.76854E+01
 -1        16-3.32088E+02-1.31805E+03-2.65229E+03-5.65403E+00 5.82771E+01 1.44030E+02
 -1        17-2.50238E+01-1.07369E+03-1.75103E+03 2.75901E-01-7.32954E-01-1.51861E+02
 -1        18-2.56869E+02-6.86133E+02-9.70073E+02 2.77675E+00 6.12675E+00-1.48002E+02
 -1        19-2.35905E+01-1.07453E+03-1.74792E+03 6.42634E+00 2.96877E+01-1.51761E+02
 -1        20 2.59051E+02-1.41797E+03-2.46720E+03 4.36968E+00 2.23027E+01-1.76080E+02
 -1        21-2.86843E+02-3.38095E+02-8.29738E+02 1.54999E+01 4.33625E+01-1.77086E+02
 -1        22-1.08921E+03-1.32624E+03-3.03737E+03-5.31442E+01 1.50855E+02 6.06557E+02
 -1        23-2.60100E+02-6.88328E+02-9.67343E+02 1.28682E+01 2.47404E+01-1.46670E+02
 -1        24 2.61767E+02-1.42587E+03-2.46034E+03 1.54493E+01 9.10115E+01-1.76817E+02
 -1        25-2.87018E+02-3.36707E+02-8.30767E+02 1.07794E+01 3.30709E+01-1.77518E+02
 -1        26-5.55075E+02-7.78860E+02-1.88724E+03-1.69590E+01 9.77233E+01 1.93457E+02
 -1        27-1.08884E+03-1.32096E+03-3.04203E+03-3.97394E+01 1.13576E+02 6.07413E+02
 -1        28-2.63997E+02-5.52502E+02-1.01621E+03 5.02432E+00 4.10283E+01-5.73797E+01
 -1        29-3.30726E+02-1.32508E+03-2.64373E+03-1.25278E+01 1.16028E+02 1.43319E+02
 -1        30-2.58986E+02-6.87229E+02-9.68330E+02 9.38743E+00 1.84825E+01-1.47227E+02
 -1        31-2.26151E+01-1.07823E+03-1.74397E+03 1.32460E+01 5.86482E+01-1.51484E+02
 -1        32 2.60684E+02-1.42296E+03-2.46297E+03 1.20330E+01 6.85922E+01-1.76479E+02
 -1        33-6.34094E+01-1.94672E+03-2.74268E+03 7.95459E-01 1.89608E+00-7.06691E+01
 -1        34 3.12890E+02-1.08037E+03-1.77928E+03-2.30512E+00 5.84033E+00 4.19559E-01
 -1        35 3.11619E+02-1.08533E+03-1.78378E+03 1.78467E+00 2.84624E+01 5.58596E-01
 -1        36-6.00282E+01-1.94722E+03-2.74610E+03 4.67400E+00 3.36909E+01-7.22863E+01
 -1        37 1.45864E+01-1.73186E+03-2.71129E+03 3.96609E-01 5.34053E-01-5.10378E+01
 -1        38 1.86459E+01-8.45561E+02-1.25805E+03-1.52711E+00 2.20222E+00-1.79450E+02
 -1        39 1.69533E+01-8.47741E+02-1.25922E+03 8.65722E+00 1.67213E+01-1.78678E+02
 -1        40 1.74780E+01-1.73310E+03-2.70978E+03 3.71708E+00 4.20368E+01-5.21434E+01
 -1        41 1.22278E+02-1.50261E+03-2.21832E+03-7.87566E-01 3.66153E+00-6.25829E+01
 -1        42 3.12414E+02-1.08239E+03-1.78157E+03 1.17589E-01 1.53398E+01 4.97972E-01
 -1        43 1.21199E+02-1.50483E+03-2.22274E+03 2.45560E+00 3.05201E+01-6.29268E+01
 -1        44-6.16297E+01-1.94648E+03-2.74401E+03 2.59821E+00 2.00326E+01-7.15002E+01
 -1        45 3.05561E+02-1.09547E+03-1.78596E+03-1.21914E-01 5.98852E+01 6.81231E-01
 -1        46-5.79068E+01-1.95096E+03-2.73474E+03 6.24562E+00 7.00852E+01-7.01968E+01
 -1        47 1.32560E+01-8.52612E+02-1.25898E+03 1.55329E+01 3.53360E+01-1.77492E+02
 -1        48 1.89339E+01-1.73939E+03-2.70267E+03 4.52779E+00 8.54534E+01-5.19560E+01
 -1        49 3.08392E+02-1.09080E+03-1.78503E+03-9.55206E-01 4.53160E+01 5.25848E-01
 -1        50 1.22724E+02-1.50856E+03-2.21637E+03 5.53957E+00 6.25064E+01-6.25485E+01
 -1        51-5.90219E+01-1.94968E+03-2.74060E+03 5.87833E+00 5.04681E+01-7.11193E+01
 -1        52 9.14731E+01 3.30846E+02 6.73074E+02-8.05805E-01-8.94814E-01 4.56611E+01
 -1        53 9.59986E+01 3.31782E+02 6.75301E+02-1.94038E+00-1.64631E+01 4.40684E+01
 -1        54-2.84555E+02-1.10364E+02-1.66530E+02 1.03120E+00-7.97319E-01 2.09561E+02
 -1        55-2.79132E+02-1.09555E+02-1.65884E+02-9.67020E+00 3.07193E+00 2.08138E+02
 -1        56-2.03427E+02-8.58930E+01-1.50065E+02 1.39889E+00-9.28236E-01-2.89000E+01
 -1        57 9.42486E+01 3.32554E+02 6.74684E+02-1.39229E+00-8.95651E+00 4.48662E+01
 -1        58-2.01108E+02-8.43341E+01-1.47164E+02 2.78852E+00 1.80511E+00-2.99297E+01
 -1        59-7.03128E+01 1.41124E+02 3.18000E+02-1.14977E-01-1.01936E+00 8.17732E+01
 -1        60-6.55897E+01 1.42918E+02 3.19017E+02-3.72567E+00-8.07106E+00 8.07128E+01
 -1        61-3.32981E+02-4.11767E+02-5.92201E+02 2.66323E-01-1.48340E+00 5.95930E+01
 -1        62-2.81873E+02-1.09964E+02-1.66166E+02-4.33065E+00 1.68246E+00 2.08838E+02
 -1        63-3.31193E+02-4.12291E+02-5.91354E+02-2.17134E+00 7.40013E+00 5.90074E+01
 -1        64 9.88483E+01 3.33023E+02 6.75645E+02-3.67651E+00-3.01598E+01 4.20870E+01
 -1        65-2.74157E+02-1.09690E+02-1.65749E+02-1.80718E+01 5.15458E+00 2.06140E+02
 -1        66 9.69074E+01 3.31314E+02 6.74814E+02-3.12623E+00-2.39547E+01 4.30502E+01
 -1        67-1.98699E+02-8.32025E+01-1.44128E+02 2.72023E+00 5.40689E+00-3.10595E+01
 -1        68-6.15466E+01 1.44784E+02 3.19223E+02-6.97367E+00-1.52247E+01 7.96135E+01
 -1        69-2.76615E+02-1.09673E+02-1.65801E+02-1.33692E+01 3.95926E+00 2.07186E+02
 -1        70-3.30354E+02-4.14251E+02-5.90210E+02-5.07483E+00 1.57337E+01 5.80127E+01
 -1        71 3.83185E+02-2.06891E+00 3.05313E+02 2.00745E+00 4.79135E+00-3.73015E+02
 -1        72 3.86439E+02 3.58523E+00 3.07280E+02 1.32423E+01-1.17010E+01-3.73539E+02
 -1        73 2.30869E+01-8.70991E+01 4.66400E+00 1.74699E+00 2.17031E+00-3.58897E+01
 -1        74 2.76767E+01-8.47893E+01 6.38993E+00-2.93556E-01-2.93908E+00-3.73101E+01
 -1        75 4.31784E+02-4.41513E+02-5.05196E+02 3.98048E+00 6.70291E+00-3.05020E+02
 -1        76 3.84151E+02-6.68013E-01 3.05444E+02 7.20424E+00-5.48382E+00-3.73332E+02
 -1        77 4.38486E+02-4.40417E+02-5.05959E+02 1.61350E+01 4.59277E+00-3.05722E+02
 -1        78 4.01800E+02 1.50769E+01 3.12892E+02 3.26447E+01-2.73073E+01-3.72610E+02
 -1        79 3.77131E+01-8.04240E+01 9.29644E+00 3.38595E+00-8.35427E+00-3.87350E+01
 -1        80 3.94762E+02 1.08452E+01 3.10788E+02 2.41569E+01-1.82395E+01-3.72978E+02
 -1        81 4.52188E+02-4.37108E+02-5.03775E+02 2.67488E+01 4.70538E+00-3.06091E+02
 -1        82-4.57926E+01-8.51681E+01 1.21995E+02 1.28580E+00-1.52046E+00 1.75544E+01
 -1        83 3.33093E+01 3.83857E+00 7.55297E+00 2.56987E-01 2.33020E-01-3.66204E+00
 -1        84 3.03247E+01 2.70242E+00 6.86097E+00 1.15054E+00-7.51102E-02-5.20465E+00
 -1        85-4.31693E+01-8.30571E+01 1.20913E+02 6.39648E-02-9.91398E+00 1.62250E+01
 -1        86 5.36764E+01-1.58635E+02-3.16974E+01-5.92756E-01 2.26188E+00-2.53527E+01
 -1        87 4.87330E+01 1.04701E+01-1.46238E+01-2.72503E-01-7.14613E-01 4.99137E+01
 -1        88 4.62972E+01 9.10971E+00-1.58239E+01-2.60554E+00 9.96552E-01 5.12334E+01
 -1        89 5.26569E+01-1.55999E+02-2.73510E+01 6.12067E-01-5.73288E+00-2.47375E+01
 -1        90-2.23596E+01-4.70366E+01 5.98098E+01 5.47480E-01-5.06838E-01 7.01472E+00
 -1        91 3.18794E+01 3.42880E+00 7.24950E+00 6.40938E-01-2.30360E-02-4.44941E+00
 -1        92-2.25744E+01-4.60476E+01 5.92233E+01 7.71025E-01-4.90088E+00 5.08815E+00
 -1        93-4.44244E+01-8.39841E+01 1.21595E+02 6.25483E-01-5.33071E+00 1.68532E+01
 -1        94 2.78283E+01 2.38106E+00 6.47578E+00 6.23028E-01-4.10259E-01-7.05514E+00
 -1        95-4.60892E+01-8.15795E+01 1.16554E+02-1.26119E+00-1.72105E+01 1.44196E+01
 -1        96 4.30815E+01 7.39938E+00-1.71414E+01-4.60975E+00 2.21403E+00 5.26622E+01
 -1        97 5.18069E+01-1.52643E+02-2.37262E+01 2.14616E+00-1.16857E+01-2.44532E+01
 -1        98 2.90138E+01 2.40710E+00 6.60087E+00 7.55055E-01-2.81211E-01-6.12388E+00
 -1        99-2.46564E+01-4.46737E+01 5.74012E+01-2.43568E-01-8.89140E+00 2.83520E+00
 -1       100-4.46863E+01-8.24508E+01 1.18595E+02 1.57915E+00-1.39295E+01 1.55586E+01
 -1       101-9.83504E+00-5.92964E+01-6.39101E+00 1.19374E+00 3.56411E+00-4.34717E+00
 -1       102 6.06622E+01 1.63772E+01-8.37280E+00-1.10972E-01-1.73741E+00-1.69348E+01
 -1       103 6.13305E+01 1.75094E+01-5.52415E+00-4.24903E-01-1.65964E+00-1.13672E+01
 -1       104-1.13779E+01-6.15813E+01-5.30185E+00 1.95425E+00 4.84223E+00-3.46470E-01
 -1       105 5.92202E+00-6.78553E+01 2.86997E+01-6.17434E-01-7.84999E-01 4.06042E-01
 -1       106-3.80240E+01-1.72265E+01-1.02364E+01 1.22313E-01 4.56050E-01 3.43510E+00
 -1       107-3.78431E+01-1.66211E+01-8.97425E+00 4.36295E-01-6.06061E-01 3.01696E+00
 -1       108 6.84415E+00-6.79561E+01 2.47525E+01-7.97540E-01-3.26601E+00 3.14279E-01
 -1       109-3.74867E-01-3.19170E+01-1.81255E+01 3.11008E-01 5.46084E-01-3.02783E+00
 -1       110 6.10533E+01 1.69850E+01-6.92539E+00-1.39986E-01-1.68985E+00-1.40596E+01
 -1       111-9.49290E-01-3.27319E+01-1.62552E+01 1.11291E-01 1.24100E+00 2.49081E+00
 -1       112-1.02554E+01-5.96749E+01-5.48318E+00 1.46319E+00 4.19673E+00-2.17635E+00
 -1       113 5.91864E+01 1.66006E+01-3.08579E+00 4.16756E-01 1.75457E+00-4.82464E+00
 -1       114-5.18036E+00-5.98357E+01-2.77798E+00-9.72134E-02-5.12729E+00 1.19359E+00
 -1       115-3.60640E+01-1.51930E+01-7.00499E+00-2.08932E-01-7.28108E-01 2.40376E+00
 -1       116 3.00965E+00-6.90651E+01 1.85968E+01-9.87193E-02-7.67965E+00 1.08218E+00
 -1       117 6.02012E+01 1.71302E+01-4.44606E+00-9.41281E-03-6.33917E-01-8.18039E+00
 -1       118-1.04233E-01-3.30489E+01-1.42870E+01-6.26242E-01-1.69384E+00 7.16741E+00
 -1       119-8.63347E+00-6.17485E+01-4.13810E+00 1.56019E+00 1.41473E+00 2.89627E-01
 -1       120-1.18722E+00 1.03287E+02-1.56521E+02 7.10998E-01-1.95753E-01 2.16374E-01
 -1       121-9.42182E-01 1.04200E+02-1.56418E+02 1.10984E+00 1.13528E+01 2.16702E-01
 -1       122-8.57058E+01 2.18171E+02 2.39109E+02 2.60604E-01 2.27072E-01 4.37423E+01
 -1       123-8.73210E+01 2.17800E+02 2.37691E+02-1.50755E+00-6.21261E-01 4.16953E+01
 -1       124 3.21790E+01 5.99346E+01-6.95197E+01 7.07905E-01-1.18246E-01-1.79136E+00
 -1       125-1.29899E+00 1.03185E+02-1.56702E+02 9.51929E-01 5.69409E+00 2.13765E-01
 -1       126 3.08434E+01 5.93215E+01-7.01152E+01 9.66416E-01 5.54517E+00-2.07197E+00
 -1       127 3.33962E-02 1.04198E+02-1.55066E+02-3.04358E-02 2.28471E+01 3.15197E-01
 -1       128-8.85646E+01 2.17490E+02 2.36253E+02-3.43350E+00-1.63782E+00 3.92930E+01
 -1       129-2.19737E-01 1.04723E+02-1.55475E+02 9.63301E-01 1.71794E+01 3.06806E-01
 -1       130 2.94568E+01 5.83641E+01-7.01814E+01 2.20782E-01 1.12995E+01-2.52293E+00
 -1       131-9.46932E+01 2.63190E+01 2.54139E+01 2.11993E+00 7.03636E-02 3.46233E+01
 -1       132-9.91774E+01 2.49030E+01 2.57454E+01-6.05527E-01 2.37549E-01 3.29829E+01
 -1       133 5.43515E+01 9.41845E+01-2.25725E+01-1.13166E+00-4.48731E-02-1.93737E+01
 -1       134 5.68429E+01 9.38206E+01-2.11331E+01 2.82100E-02 4.65684E+00-1.85781E+01
 -1       135 8.77287E+00 3.18054E+01 1.92641E+01 1.23485E+00-4.66253E-01 1.23107E+00
 -1       136-9.72623E+01 2.46412E+01 2.51752E+01 7.08684E-01 4.19567E-02 3.37908E+01
 -1       137 7.00218E+00 3.19021E+01 2.09528E+01 1.38166E-01-3.60747E-01 2.46025E+00
 -1       138-1.02354E+02 2.41253E+01 2.64660E+01-2.71210E+00-2.02478E-01 3.10187E+01
 -1       139 5.85942E+01 9.26388E+01-1.94949E+01 1.53708E+00 9.88394E+00-1.75857E+01
 -1       140-1.00438E+02 2.55232E+01 2.64741E+01-6.09343E-01-8.01737E-02 3.21021E+01
 -1       141 5.52348E+00 3.17942E+01 2.30453E+01-3.61657E-01 7.83531E-01 4.11410E+00
 -1       142-2.87233E+02-3.42768E+02-8.24570E+02 2.40167E+01 6.40787E+01-1.76396E+02
 -1       143-1.08899E+03-1.34324E+03-3.02100E+03-7.95353E+01 2.24974E+02 6.03664E+02
 -1       144-2.58114E+02-6.91047E+02-9.64961E+02 1.94106E+01 3.69742E+01-1.46509E+02
 -1       145 2.59938E+02-1.43544E+03-2.44993E+03 2.18321E+01 1.36496E+02-1.75329E+02
 -1       146-2.87023E+02-3.40328E+02-8.27208E+02 2.02277E+01 5.34033E+01-1.76700E+02
 -1       147-5.54608E+02-7.89549E+02-1.87619E+03-2.50801E+01 1.45472E+02 1.92418E+02
 -1       148-1.08901E+03-1.33449E+03-3.02915E+03-6.64875E+01 1.87649E+02 6.05101E+02
 -1       149-2.62867E+02-5.56035E+02-1.01121E+03 7.99067E+00 6.06556E+01-5.70968E+01
 -1       150-3.31970E+02-1.33840E+03-2.63175E+03-1.94089E+01 1.73716E+02 1.42644E+02
 -1       151-2.59016E+02-6.89436E+02-9.66128E+02 1.63646E+01 3.05562E+01-1.46574E+02
 -1       152-2.35276E+01-1.08489E+03-1.73789E+03 2.00117E+01 8.76904E+01-1.50625E+02
 -1       153 2.60781E+02-1.43081E+03-2.45528E+03 1.87861E+01 1.13756E+02-1.76045E+02
 -1       154-2.87619E+02-3.49258E+02-8.17682E+02 3.17010E+01 8.45601E+01-1.75430E+02
 -1       155-1.08920E+03-1.36694E+03-2.99907E+03-1.05880E+02 2.97797E+02 5.99481E+02
 -1       156-2.55478E+02-6.94128E+02-9.61687E+02 2.63561E+01 4.86576E+01-1.45939E+02
 -1       157 2.58256E+02-1.44864E+03-2.43724E+03 3.08167E+01 1.79473E+02-1.73330E+02
 -1       158-2.87448E+02-3.46098E+02-8.21116E+02 2.78260E+01 7.44590E+01-1.75916E+02
 -1       159-5.54397E+02-8.04521E+02-1.86147E+03-3.34314E+01 1.92412E+02 1.90926E+02
 -1       160-1.08923E+03-1.35544E+03-3.01013E+03-9.26816E+01 2.61521E+02 6.01571E+02
 -1       161-2.61371E+02-5.60825E+02-1.00428E+03 1.07174E+01 7.97987E+01-5.67832E+01
 -1       162-3.32526E+02-1.35572E+03-2.61431E+03-2.49328E+01 2.28917E+02 1.41844E+02
 -1       163-2.56890E+02-6.92821E+02-9.63378E+02 2.29100E+01 4.28718E+01-1.46211E+02
 -1       164-2.49929E+01-1.09419E+03-1.73047E+03 2.61473E+01 1.15766E+02-1.49562E+02
 -1       165 2.59179E+02-1.44186E+03-2.44342E+03 2.63322E+01 1.58185E+02-1.74333E+02
 -1       166 3.11918E+02-1.09552E+03-1.77275E+03-1.82960E+00 9.08528E+01-1.09122E-01
 -1       167-6.00553E+01-1.95880E+03-2.73106E+03 7.65805E+00 1.02156E+02-7.06036E+01
 -1       168 1.70953E+01-8.54156E+02-1.25241E+03 2.25134E+01 5.37843E+01-1.77664E+02
 -1       169 1.73871E+01-1.74806E+03-2.69420E+03 5.30232E+00 1.26345E+02-5.14431E+01
 -1       170 3.08554E+02-1.09613E+03-1.77926E+03 7.72675E-01 7.64754E+01 4.07858E-01
 -1       171 1.21254E+02-1.51494E+03-2.21043E+03 8.57512E+00 9.17340E+01-6.22017E+01
 -1       172-5.91597E+01-1.95582E+03-2.73319E+03 6.66153E+00 8.61259E+01-7.04959E+01
 -1       173 3.13342E+02-1.10064E+03-1.75746E+03 2.41204E+00 1.19575E+02 7.64484E-01
 -1       174-6.33096E+01-1.97073E+03-2.71806E+03 1.15156E+01 1.37198E+02-6.99861E+01
 -1       175 1.87539E+01-8.58253E+02-1.24497E+03 3.26953E+01 7.09262E+01-1.76489E+02
 -1       176 1.45269E+01-1.76175E+03-2.68149E+03 8.56707E+00 1.68053E+02-5.04261E+01
 -1       177 3.12855E+02-1.09751E+03-1.76500E+03-4.84375E-02 1.04777E+02 2.91048E-01
 -1       178 1.22577E+02-1.52373E+03-2.19595E+03 1.13916E+01 1.23024E+02-6.17829E+01
 -1       179-6.15385E+01-1.96371E+03-2.72448E+03 9.59511E+00 1.18853E+02-7.02988E+01
 -1       180 9.59591E+01 3.36502E+02 6.70530E+02-5.73627E+00-4.32374E+01 4.37298E+01
 -1       181-2.79073E+02-1.10378E+02-1.65061E+02-2.66582E+01 6.99835E+00 2.06725E+02
 -1       182 9.69007E+01 3.33501E+02 6.72643E+02-4.39217E+00-3.61743E+01 4.29331E+01
 -1       183-2.01185E+02-8.57300E+01-1.45999E+02 2.45051E+00 9.09603E+00-2.99535E+01
 -1       184-6.55866E+01 1.45392E+02 3.16510E+02-1.03491E+01-2.23571E+01 8.01332E+01
 -1       185-2.76586E+02-1.10034E+02-1.65443E+02-2.28684E+01 5.78828E+00 2.06399E+02
 -1       186-3.31155E+02-4.15365E+02-5.88123E+02-8.09479E+00 2.39437E+01 5.84387E+01
 -1       187 9.14672E+01 3.40901E+02 6.62993E+02-7.13854E+00-5.77808E+01 4.50812E+01
 -1       188-2.84551E+02-1.12116E+02-1.64790E+02-3.72891E+01 9.38566E+00 2.06283E+02
 -1       189 9.42195E+01 3.39811E+02 6.67368E+02-6.41464E+00-5.01125E+01 4.44069E+01
 -1       190-2.03536E+02-8.83022E+01-1.48009E+02 3.64165E+00 1.17562E+01-2.87021E+01
 -1       191-7.03284E+01 1.46298E+02 3.12777E+02-1.40545E+01-2.98983E+01 8.05221E+01
 -1       192-2.81841E+02-1.11192E+02-1.64943E+02-3.19608E+01 8.08903E+00 2.06503E+02
 -1       193-3.32986E+02-4.17542E+02-5.86441E+02-1.06287E+01 3.11401E+01 5.86364E+01
 -1       194 3.86330E+02 9.27090E+00 3.01495E+02 5.18996E+01-4.22426E+01-3.70024E+02
 -1       195 2.76578E+01-8.28831E+01 4.44065E+00 6.77258E+00-1.33845E+01-3.65549E+01
 -1       196 3.94724E+02 1.36158E+01 3.08029E+02 4.10649E+01-3.38934E+01-3.71417E+02
 -1       197 4.38575E+02-4.40022E+02-5.06150E+02 3.71267E+01 5.27324E+00-3.03586E+02
 -1       198 3.83342E+02 7.58827E+00 2.96197E+02 6.25015E+01-5.24326E+01-3.67474E+02
 -1       199 2.31815E+01-8.41696E+01 2.02787E+00 4.44684E+00-1.58227E+01-3.54352E+01
 -1       200 3.84195E+02 6.89969E+00 2.98161E+02 5.76151E+01-4.74547E+01-3.68690E+02
 -1       201 4.32184E+02-4.42456E+02-5.03015E+02 4.91969E+01 1.00535E+01-3.01010E+02
 -1       202 3.03145E+01 2.83935E+00 6.71299E+00-2.29040E-01-6.94019E-01-5.33987E+00
 -1       203-4.31761E+01-8.04300E+01 1.18243E+02-2.86173E+00-2.52571E+01 1.59623E+01
 -1       204 4.63129E+01 8.66029E+00-1.53727E+01-6.33356E+00 3.40734E+00 5.09484E+01
 -1       205 5.26494E+01-1.53879E+02-2.94686E+01 3.68627E+00-1.70010E+01-2.44433E+01
 -1       206 2.90089E+01 2.43612E+00 6.56640E+00 3.26094E-01-4.20465E-01-6.17497E+00
 -1       207-2.25900E+01-4.45929E+01 5.77455E+01-1.62990E+00-1.32661E+01 4.86163E+00
 -1       208-4.46850E+01-8.11260E+01 1.17261E+02-4.25049E+00-2.13729E+01 1.50315E+01
 -1       209 3.33103E+01 3.96574E+00 7.44077E+00 3.85320E-01-6.44840E-01-3.71051E+00
 -1       210-4.58046E+01-7.90673E+01 1.15862E+02-4.33332E+00-3.50798E+01 1.69492E+01
 -1       211 4.87509E+01 9.54708E+00-1.36731E+01-8.40469E+00 4.69903E+00 4.92307E+01
 -1       212 5.36242E+01-1.54461E+02-3.59963E+01 4.93998E+00-2.23662E+01-2.46444E+01
 -1       213 3.18752E+01 3.55297E+00 7.12983E+00 1.43591E-01-6.60587E-01-4.53768E+00
 -1       214-2.23563E+01-4.38105E+01 5.66028E+01-1.76691E+00-1.82428E+01 6.68693E+00
 -1       215-4.44375E+01-7.96235E+01 1.17187E+02-3.53686E+00-3.00485E+01 1.64154E+01
 -1       216 6.13600E+01 1.62349E+01-4.21930E+00 2.38665E+00 5.52490E+00-1.11265E+01
 -1       217-1.14169E+01-5.81619E+01-8.78858E+00-1.85065E+00-1.42952E+01-6.55067E-01
 -1       218-3.78541E+01-1.65907E+01-8.99290E+00-9.50597E-01-7.52776E-01 2.88652E+00
 -1       219 6.85758E+00-6.63191E+01 2.31141E+01 7.23889E-01-1.27226E+01 4.31267E-01
 -1       220 6.02184E+01 1.62713E+01-3.56520E+00 1.42395E+00 4.27118E+00-8.05315E+00
 -1       221-9.44989E-01-3.17825E+01-1.72174E+01-5.38017E-01-4.03134E+00 2.43880E+00
 -1       222-8.65251E+00-5.95325E+01-6.38767E+00-1.57324E+00-1.11500E+01 3.83689E-02
 -1       223 6.06627E+01 1.50800E+01-7.07232E+00 3.06611E+00 5.77379E+00-1.66273E+01
 -1       224-9.80915E+00-5.66214E+01-8.97369E+00-4.78568E-01-1.19494E+01-4.43229E+00
 -1       225-3.80314E+01-1.68765E+01-1.06063E+01-7.20192E-01-1.58346E+00 3.34983E+00
 -1       226 5.93449E+00-6.51494E+01 2.60427E+01 5.70263E-01-1.60250E+01 4.67951E-01
 -1       227 6.10665E+01 1.56869E+01-5.61515E+00 2.58152E+00 5.69061E+00-1.38063E+01
 -1       228-3.64731E-01-3.13673E+01-1.86348E+01 1.97443E-01-2.69277E+00-2.97345E+00
 -1       229-1.02559E+01-5.65820E+01-8.54181E+00-1.08617E+00-1.32344E+01-2.34932E+00
 -1       230-9.31229E-01 1.00230E+02-1.52434E+02-1.13254E+00 3.38914E+01 1.97370E-02
 -1       231-8.73413E+01 2.18174E+02 2.37301E+02-5.75372E+00-2.81441E+00 4.13189E+01
 -1       232-2.15846E-01 1.02755E+02-1.53504E+02-1.00347E+00 2.83374E+01 1.37261E-01
 -1       233 3.08508E+01 5.73323E+01-6.81280E+01-5.96279E-01 1.68892E+01-2.21047E+00
 -1       234-1.18451E+00 9.53821E+01-1.48607E+02-7.34971E-01 4.46449E+01 1.09978E-01
 -1       235-8.57094E+01 2.18879E+02 2.38385E+02-7.85355E+00-3.82396E+00 4.30155E+01
 -1       236-1.29130E+00 9.72987E+01-1.50801E+02-9.76877E-01 3.91049E+01 5.69799E-02
 -1       237 3.21721E+01 5.59336E+01-6.55346E+01-3.81915E-01 2.23805E+01-1.86787E+00
 -1       238-9.91812E+01 2.50023E+01 2.56404E+01-5.13021E+00-3.68283E-01 3.25928E+01
 -1       239 5.68452E+01 9.19486E+01-1.92646E+01 3.19842E+00 1.52815E+01-1.83018E+01
 -1       240-1.00442E+02 2.55158E+01 2.64731E+01-4.97382E+00-8.26860E-02 3.17214E+01
 -1       241 7.00589E+00 3.14376E+01 2.14240E+01-5.65760E-01 2.22451E+00 2.40354E+00
 -1       242-9.46991E+01 2.63040E+01 2.54065E+01-8.10241E+00 7.63504E-02 3.37190E+01
 -1       243 5.43571E+01 9.06534E+01-1.90299E+01 4.47935E+00 2.00167E+01-1.88781E+01
 -1       244-9.72672E+01 2.46618E+01 2.51396E+01-6.56460E+00-1.38952E-01 3.31513E+01
 -1       245 8.77333E+00 3.12886E+01 1.97789E+01-1.42183E+00 2.53004E+00 9.89497E-01
 -1       246-6.29928E+01 1.61055E+03-5.70457E+02 2.19753E-01-6.94218E-01 7.26732E+01
 -1       247-4.11438E+00 1.93928E+03-8.15029E+02-1.68087E-02 1.98870E+00-6.82539E+00
 -1       248-3.96676E+00 1.93304E+03-8.09527E+02 1.22666E+00 1.19128E+02-6.26562E+00
 -1       249-6.26224E+01 1.60550E+03-5.66443E+02-2.71072E+00 9.51310E+01 7.28118E+01
 -1       250 1.41394E+01 7.56372E+02-2.12672E+02 7.81729E-02 1.59291E-01-2.00748E+01
 -1       251-3.57806E-01 8.27845E+02-2.43964E+02-3.14244E-01-3.45269E-01 5.67784E+00
 -1       252-8.17725E-01 8.23238E+02-2.39120E+02-1.72298E+00 4.67002E+01 5.53838E+00
 -1       253 1.39427E+01 7.55802E+02-2.11082E+02 6.17658E-01 4.25389E+01-2.01330E+01
 -1       254-2.30904E+01 1.78509E+03-6.71240E+02 1.73513E-01 5.77874E-01 2.90816E+01
 -1       255-3.91573E+00 1.93654E+03-8.12300E+02 4.02992E-01 5.97538E+01-6.59364E+00
 -1       256-2.19301E+01 1.78010E+03-6.65914E+02-5.14803E-01 1.06412E+02 2.83119E+01
 -1       257-6.27609E+01 1.60812E+03-5.68320E+02-1.15995E+00 4.74961E+01 7.27579E+01
 -1       258-1.75164E+01 1.11379E+03-5.61511E+02 1.81726E-01-2.00705E-01 2.70149E+01
 -1       259-2.24957E+01 1.29443E+03-6.88694E+02-6.50041E-02 4.33750E-01-8.39902E-01
 -1       260-2.18582E+01 1.28868E+03-6.82348E+02-2.10057E-02 8.57811E+01-8.62375E-01
 -1       261-1.73557E+01 1.11105E+03-5.58204E+02-1.11276E+00 7.31915E+01 2.76500E+01
 -1       262 5.63409E+00 7.91461E+02-2.29418E+02-1.79166E-01-4.96151E-02-8.03772E+00
 -1       263-8.04519E-01 8.25257E+02-2.41664E+02-7.84088E-01 2.34292E+01 5.65414E+00
 -1       264 5.00004E+00 7.88562E+02-2.26456E+02-5.23718E-01 4.46689E+01-7.57464E+00
 -1       265 1.39862E+01 7.55825E+02-2.11985E+02 2.34585E-01 2.13090E+01-2.01049E+01
 -1       266-2.13486E+00 1.91521E+03-7.93495E+02 5.74517E-01 2.38700E+02-5.66862E+00
 -1       267-6.24942E+01 1.59273E+03-5.54209E+02-6.40910E+00 1.89379E+02 7.26172E+01
 -1       268-2.51015E+00 8.16347E+02-2.29798E+02-4.80874E-01 9.22808E+01 5.32095E+00
 -1       269 1.41036E+01 7.51126E+02-2.06074E+02 1.77677E+00 8.43439E+01-2.01105E+01
 -1       270-3.15975E+00 1.92386E+03-8.01561E+02 1.38973E+00 1.79383E+02-5.91060E+00
 -1       271-2.06920E+01 1.76529E+03-6.51034E+02-2.41813E+00 2.13058E+02 2.79231E+01
 -1       272-6.26325E+01 1.59893E+03-5.60442E+02-4.60360E+00 1.42028E+02 7.27191E+01
 -1       273-2.05528E+01 1.27603E+03-6.68140E+02 1.55923E-01 1.71343E+02-1.19325E+00
 -1       274-1.76850E+01 1.10178E+03-5.48715E+02-2.52946E+00 1.45557E+02 2.83049E+01
 -1       275-1.45447E+00 8.20028E+02-2.34309E+02-1.25906E+00 6.94346E+01 5.40229E+00
 -1       276 4.11311E+00 7.82566E+02-2.19443E+02 6.24225E-01 8.83445E+01-7.20233E+00
 -1       277 1.40945E+01 7.53754E+02-2.08450E+02 1.22234E+00 6.35144E+01-2.01410E+01
 -1       278 2.16534E+00 5.54147E+02 6.75647E+01 1.24898E-01-2.74946E-01 2.13739E+00
 -1       279-2.23756E+01 5.61216E+02-3.40201E+01-6.24693E-02-2.82835E-01 8.25079E+00
 -1       280-2.21192E+01 5.60614E+02-3.32827E+01 2.25337E-01 2.65502E+01 7.71159E+00
 -1       281 2.44897E+00 5.53019E+02 6.97643E+01 2.03538E-02 2.02391E+01 2.44512E+00
 -1       282-1.08271E+00 6.55974E+02-1.13444E+02-5.27810E-02 3.87252E-02-9.59867E-01
 -1       283 1.28355E+01 7.33212E+02-1.11684E+02 4.37593E-02 1.19173E-01-3.96391E+00
 -1       284 1.27149E+01 7.30292E+02-1.09217E+02-1.32754E-01 3.68933E+01-4.11778E+00
 -1       285-1.24529E+00 6.54752E+02-1.11567E+02-3.75938E-02 3.32194E+01-1.30905E+00
 -1       286 1.88438E-01 5.61977E+02 2.09807E+01 5.07948E-02-1.90163E-01-3.67248E+00
 -1       287-2.22220E+01 5.60907E+02-3.36671E+01 1.31802E-02 1.29862E+01 7.92293E+00
 -1       288 3.89409E-01 5.61143E+02 2.24642E+01 3.05715E-01 2.34786E+01-4.30395E+00
 -1       289 2.28500E+00 5.53574E+02 6.86528E+01 1.17459E-01 1.00298E+01 2.26790E+00
 -1       290-2.12092E+01 5.57103E+02-3.13488E+01-5.77826E-01 5.18071E+01 6.73041E+00
 -1       291 1.99717E+00 5.50000E+02 7.44839E+01-2.77970E-01 4.19637E+01 2.97338E+00
 -1       292 1.20706E+01 7.24585E+02-1.03883E+02 3.20885E-01 7.30537E+01-3.79152E+00
 -1       293-9.62003E-01 6.50612E+02-1.06513E+02 1.70381E-01 6.67447E+01-1.82446E+00
 -1       294-2.16897E+01 5.58888E+02-3.23215E+01-2.90217E-01 3.92170E+01 7.25754E+00
 -1       295 4.31180E-01 5.57883E+02 2.57658E+01 4.23296E-01 4.68956E+01-4.86065E+00
 -1       296 2.23805E+00 5.51526E+02 7.21097E+01-5.91317E-02 3.09334E+01 2.75003E+00
 -1       297 5.47288E+01 2.29388E+03-1.36893E+03 9.47686E-01-9.91364E+00-6.36716E+01
 -1       298 5.30652E+01 2.28658E+03-1.36133E+03 1.51435E+00 1.61257E+02-6.54401E+01
 -1       299-7.70778E+00 9.19898E+02-2.04780E+02-2.99084E-01 2.65992E+00 1.69704E+01
 -1       300-6.93033E+00 9.08348E+02-1.96284E+02-2.38405E-01 4.87280E+01 1.77867E+01
 -1       301 1.48440E+01 2.10641E+03-1.11348E+03 3.93398E-01-3.89310E+00-3.14062E+01
 -1       302 5.34833E+01 2.28922E+03-1.36559E+03 1.49902E+00 7.81947E+01-6.46137E+01
 -1       303 1.31848E+01 2.09899E+03-1.10750E+03 1.14328E+00 1.40910E+02-3.08917E+01
 -1       304 3.85842E+01 1.51682E+03-8.88215E+02-1.72178E-02-2.00183E+00-3.37847E+01
 -1       305 3.99703E+01 1.50694E+03-8.74703E+02 1.36599E+00 1.05547E+02-3.59524E+01
 -1       306-2.77609E+00 8.74520E+02-2.23272E+02-2.45534E-01 1.11395E+00 1.21633E+01
 -1       307-7.63017E+00 9.14075E+02-2.00715E+02-4.56960E-01 2.50110E+01 1.74273E+01
 -1       308-2.31158E+00 8.66751E+02-2.16348E+02-1.00963E+00 4.76648E+01 1.19399E+01
 -1       309 5.73775E+01 2.26903E+03-1.33165E+03 5.92117E+00 3.18735E+02-6.90538E+01
 -1       310-1.65789E+01 8.88869E+02-1.89666E+02-1.64443E+00 9.47590E+01 1.88777E+01
 -1       311 5.55980E+01 2.27875E+03-1.34611E+03 3.81271E+00 2.37979E+02-6.72023E+01
 -1       312 1.59988E+01 2.08080E+03-1.08539E+03 2.74868E+00 2.79699E+02-3.18100E+01
 -1       313 3.89236E+01 1.48773E+03-8.52834E+02 3.19401E+00 2.06750E+02-3.68258E+01
 -1       314-1.14659E+01 8.98611E+02-1.92808E+02-2.84523E+00 7.24475E+01 1.81390E+01
 -1       315-7.86088E+00 8.53779E+02-2.08225E+02-1.03893E+00 9.34877E+01 1.19069E+01
 -1       316 3.86878E+01 6.54823E+02 7.76108E+01-1.19938E+00 8.72698E-01-1.71817E+01
 -1       317 4.02315E+01 6.56554E+02 8.18403E+01 1.30083E-01 2.53525E+01-1.93904E+01
 -1       318-2.17288E+01 7.85646E+02-1.51478E+02 6.00805E-01-2.87111E-01 9.49856E+00
 -1       319-2.25479E+01 7.81150E+02-1.49944E+02 1.24835E-02 4.01707E+01 1.05774E+01
 -1       320-2.13744E+00 6.03725E+02 1.75869E+01-6.50504E-01 2.06204E-01 4.40112E+00
 -1       321 4.01982E+01 6.57097E+02 8.04528E+01-4.13896E-01 1.36779E+01-1.83746E+01
 -1       322-1.16836E+00 6.04258E+02 2.00554E+01-5.16033E-03 2.58674E+01 3.54293E+00
 -1       323 4.10439E+01 6.55616E+02 8.87508E+01 1.64657E+00 5.01454E+01-1.88552E+01
 -1       324-2.32906E+01 7.73170E+02-1.44249E+02-9.09850E-01 8.08310E+01 1.04599E+01
 -1       325 3.99047E+01 6.54537E+02 8.47213E+01 7.34575E-01 3.79872E+01-1.90565E+01
 -1       326-1.19862E-01 6.02028E+02 2.45027E+01-3.16822E-01 5.09661E+01 3.65016E+00
 -1       327-1.73312E+02-1.21467E+02 2.36605E+02 2.90469E-01-1.29076E+00 6.37244E+01
 -1       328 2.82126E+02-3.89389E+00 1.16265E+02 1.99730E-01 2.21403E+00-3.03142E-01
 -1       329 2.82077E+02-4.01235E+00 1.15396E+02 2.77276E-01-5.58707E+00 2.54492E-01
 -1       330-1.72364E+02-1.19256E+02 2.37211E+02-1.00815E+00-1.64608E+01 6.35576E+01
 -1       331-7.60188E+00-2.75985E+01 2.41625E+02 5.34346E-01-1.29790E+00 1.53918E+01
 -1       332 3.44476E+00-1.18463E+02 5.62438E+01 2.30083E-02-8.91736E-02-4.03155E+00
 -1       333 3.79303E+00-1.17965E+02 5.62117E+01 6.46750E-02-7.51060E+00-4.24262E+00
 -1       334-7.49137E+00-2.75396E+01 2.41135E+02-4.69878E-01-1.22433E+01 1.54867E+01
 -1       335 1.05918E+02-6.53583E+01 3.05012E+01-5.58320E-02 7.34588E-01 8.59348E+00
 -1       336 2.82239E+02-3.64786E+00 1.15977E+02 1.59110E-01-2.55502E+00-4.23027E-02
 -1       337 1.05807E+02-6.50605E+01 3.00745E+01-4.06477E-01-4.36071E+00 8.80308E+00
 -1       338-1.73061E+02-1.20953E+02 2.36758E+02-1.11581E+00-8.04831E+00 6.36099E+01
 -1       339-6.15875E+01-4.57101E+01 3.06178E+02 4.14879E-01-1.30206E+00 3.85944E+01
 -1       340 1.39964E+02-6.38616E+01 8.01846E+01 8.87665E-02 1.07172E+00-5.52936E+00
 -1       341 1.40141E+02-6.36233E+01 7.97692E+01 2.87716E-01-6.44333E+00-5.49186E+00
 -1       342-6.09191E+01-4.43532E+01 3.06488E+02-6.92085E-01-1.61467E+01 3.83804E+01
 -1       343-7.21217E+00-1.08414E+02-1.36496E+01 5.05692E-02-3.46850E-01 1.67768E+01
 -1       344 3.69297E+00-1.18067E+02 5.63329E+01 7.55560E-02-3.74745E+00-4.13538E+00
 -1       345-7.37170E+00-1.08290E+02-1.39224E+01-7.66239E-01-4.12576E+00 1.67331E+01
 -1       346-7.40177E+00-2.72683E+01 2.41559E+02 2.11697E-01-6.36515E+00 1.54466E+01
 -1       347 2.83271E+02-3.35132E+00 1.13705E+02-1.84163E-02-1.06542E+01 5.34301E-01
 -1       348-1.70753E+02-1.16260E+02 2.35156E+02-5.64797E+00-3.10130E+01 6.50288E+01
 -1       349 4.01181E+00-1.16305E+02 5.57653E+01 3.75144E-01-1.51425E+01-4.42277E+00
 -1       350-8.24101E+00-2.71441E+01 2.38460E+02-1.42984E+00-2.34311E+01 1.63826E+01
 -1       351 2.82577E+02-3.88179E+00 1.14429E+02 2.37484E-01-7.68284E+00 4.10355E-01
 -1       352 1.04613E+02-6.49786E+01 2.82963E+01-8.08256E-01-8.37660E+00 9.33888E+00
 -1       353-1.71317E+02-1.17134E+02 2.36362E+02-9.30506E-01-2.45028E+01 6.44692E+01
 -1       354 1.41036E+02-6.22796E+01 7.90982E+01 4.95790E-01-1.26105E+01-5.56472E+00
 -1       355-6.05903E+01-4.25533E+01 3.03691E+02-3.48374E+00-3.05405E+01 4.00731E+01
 -1       356 3.82989E+00-1.17287E+02 5.58940E+01 2.04146E-01-1.14200E+01-4.33272E+00
 -1       357-7.09046E+00-1.07327E+02-1.40945E+01-1.45318E+00-8.20676E+00 1.65396E+01
 -1       358-8.01736E+00-2.76975E+01 2.39652E+02-1.22640E+00-1.80160E+01 1.59185E+01
 -1       359 1.65967E+02 4.29099E+01 2.29682E+02-3.50557E-01-8.56192E-01-1.74725E+01
 -1       360-2.86283E+02-2.33637E+02-1.83217E+01-4.04201E-02 4.40083E-01-8.86402E+00
 -1       361-2.86380E+02-2.33042E+02-1.85004E+01 3.16563E-01-9.38893E+00-8.94346E+00
 -1       362 1.65702E+02 4.33271E+01 2.28919E+02 4.60323E-01-8.11723E+00-1.69376E+01
 -1       363 5.03132E+01-2.11669E+01 1.68590E+02 8.94234E-02-1.06931E+00-7.66675E-02
 -1       364-1.38597E+02-1.73367E+02 2.50308E+01 1.38965E-02 1.66167E-01-3.08578E+00
 -1       365-1.38500E+02-1.72869E+02 2.48900E+01 7.38788E-02-8.55527E+00-3.09525E+00
 -1       366 5.00967E+01-2.11508E+01 1.67712E+02-5.17062E-02-8.38556E+00 4.16343E-01
 -1       367-8.76508E+01-1.22771E+02-5.27075E+00 2.94496E-02-3.90354E-02 2.16451E+00
 -1       368-2.86321E+02-2.33285E+02-1.84314E+01 1.21870E-01-4.65386E+00-8.90015E+00
 -1       369-8.74191E+01-1.22329E+02-5.24086E+00-7.08877E-02-5.19348E+00 2.07436E+00
 -1       370 1.65751E+02 4.28974E+01 2.29244E+02 8.65818E-03-4.18336E+00-1.72070E+01
 -1       371-2.86405E+02-2.31787E+02-1.95033E+01 7.79446E-01-1.87399E+01-8.92569E+00
 -1       372 1.65574E+02 4.45411E+01 2.27553E+02 1.47231E+00-1.61342E+01-1.68996E+01
 -1       373-1.38591E+02-1.71595E+02 2.37679E+01 2.59868E-01-1.72291E+01-3.05375E+00
 -1       374 4.97598E+01-2.04504E+01 1.66123E+02-3.39302E-02-1.64641E+01 3.74037E-01
 -1       375-2.86404E+02-2.32438E+02-1.90168E+01 5.33825E-01-1.39943E+01-8.94077E+00
 -1       376-8.73755E+01-1.21669E+02-5.89687E+00-1.83312E-01-1.02210E+01 2.10379E+00
 -1       377 1.65716E+02 4.41032E+01 2.28326E+02 9.30714E-01-1.22091E+01-1.69236E+01
 -1       378 1.39062E+02 1.23946E+03-2.91148E+02-1.33878E-01-3.69436E+00-8.04033E+00
 -1       379 1.38916E+02 1.23654E+03-2.88121E+02 1.42188E-01 6.74866E+01-8.74338E+00
 -1       380 8.56195E-01 9.96244E+02-8.49193E+01-1.01431E-01 5.57821E-01-5.33078E+00
 -1       381 7.18218E-01 9.94172E+02-8.30214E+01 3.66086E-01 4.69219E+01-5.12365E+00
 -1       382 1.38969E+02 1.22831E+03-2.76869E+02 7.81721E-01 1.33202E+02-9.52797E+00
 -1       383 2.14281E-01 9.86938E+02-7.78543E+01 4.41322E-01 9.38360E+01-4.76881E+00
 -1       384-1.44821E+02 7.84817E+02 2.73976E+01-1.37187E-02-4.59396E-01 7.84715E+00
 -1       385-1.44964E+02 7.82966E+02 2.83280E+01-3.14926E-01 3.31246E+01 8.07377E+00
 -1       386-1.44987E+02 7.78620E+02 3.23573E+01-7.13318E-01 6.58167E+01 8.03368E+00
 -1       387-3.80486E+00 1.89099E+03-7.66971E+02-8.73862E-02 3.56644E+02-6.19003E+00
 -1       388-6.27090E+01 1.57221E+03-5.33593E+02-9.86427E+00 2.82134E+02 7.21597E+01
 -1       389-8.63047E-01 8.07126E+02-2.23082E+02 6.83180E-01 1.37860E+02 5.65990E+00
 -1       390 1.39839E+01 7.41313E+02-1.96418E+02 2.87523E+00 1.25392E+02-1.99179E+01
 -1       391-3.09717E+00 1.90279E+03-7.80257E+02-2.19366E-01 2.98065E+02-5.96903E+00
 -1       392-2.18803E+01 1.74278E+03-6.28268E+02-4.46998E+00 3.18066E+02 2.80116E+01
 -1       393-6.25688E+01 1.58253E+03-5.43966E+02-8.10222E+00 2.35643E+02 7.23860E+01
 -1       394-2.17878E+01 1.25867E+03-6.52224E+02 2.46266E-01 2.56265E+02-7.33217E-01
 -1       395-1.74038E+01 1.08557E+03-5.32971E+02-3.64506E+00 2.16701E+02 2.73914E+01
 -1       396-1.46056E+00 8.12031E+02-2.26303E+02 2.47253E-01 1.14950E+02 5.49562E+00
 -1       397 5.01720E+00 7.73232E+02-2.11118E+02 1.85924E+00 1.31640E+02-7.40676E+00
 -1       398 1.40576E+01 7.46413E+02-2.01168E+02 2.30191E+00 1.04887E+02-2.00163E+01
 -1       399-4.23394E+00 1.85591E+03-7.32090E+02 8.79682E-01 4.69758E+02-6.51241E+00
 -1       400-6.30652E+01 1.54483E+03-5.04880E+02-1.28768E+01 3.73281E+02 7.13829E+01
 -1       401-3.36094E-01 7.95543E+02-2.11586E+02-4.89931E-01 1.83417E+02 5.50903E+00
 -1       402 1.41687E+01 7.27172E+02-1.83467E+02 3.34906E+00 1.65645E+02-1.97300E+01
 -1       403-3.90800E+00 1.87365E+03-7.49433E+02 5.71870E-01 4.13143E+02-6.31990E+00
 -1       404-2.32082E+01 1.71118E+03-5.97617E+02-5.13701E+00 4.19894E+02 2.84855E+01
 -1       405-6.28925E+01 1.55856E+03-5.19186E+02-1.14469E+01 3.27771E+02 7.17537E+01
 -1       406-2.25290E+01 1.23457E+03-6.28983E+02-1.04731E-01 3.39204E+02-6.88540E-01
 -1       407-1.75617E+01 1.06321E+03-5.10990E+02-4.81405E+00 2.86507E+02 2.64817E+01
 -1       408-8.18312E-01 8.01089E+02-2.17500E+02-1.26863E-01 1.60562E+02 5.56061E+00
 -1       409 5.62088E+00 7.60584E+02-1.98680E+02 1.51703E+00 1.74556E+02-7.82739E+00
 -1       410 1.40460E+01 7.34022E+02-1.90041E+02 3.22444E+00 1.45466E+02-1.98017E+01
 -1       411-2.21181E+01 5.51788E+02-2.46627E+01-1.51870E+00 7.65890E+01 7.58409E+00
 -1       412 2.43926E+00 5.45343E+02 7.74203E+01-4.57089E-01 6.36494E+01 2.40532E+00
 -1       413 1.27032E+01 7.17579E+02-9.65305E+01 8.21622E-01 1.08920E+02-4.05904E+00
 -1       414-1.23962E+00 6.43038E+02-9.98220E+01 2.66425E-01 9.98362E+01-1.27371E+00
 -1       415-2.16930E+01 5.54465E+02-2.80078E+01-9.33368E-01 6.42233E+01 7.20908E+00
 -1       416 3.65222E-01 5.52922E+02 3.05746E+01 4.29822E-01 7.00604E+01-4.26098E+00
 -1       417 2.25843E+00 5.47674E+02 7.60084E+01-4.47484E-01 5.29557E+01 2.70132E+00
 -1       418-2.23673E+01 5.43092E+02-1.58886E+01-1.50181E+00 1.02252E+02 8.20393E+00
 -1       419 2.15253E+00 5.39425E+02 8.22995E+01-4.32088E-01 8.33948E+01 2.06717E+00
 -1       420 1.28450E+01 7.07802E+02-8.62491E+01 7.29350E-01 1.44303E+02-3.93964E+00
 -1       421-1.07667E+00 6.32782E+02-9.02567E+01 1.89643E-01 1.31556E+02-9.22219E-01
 -1       422-2.22132E+01 5.47400E+02-2.02521E+01-1.44293E+00 8.95042E+01 7.86390E+00
 -1       423 1.91525E-01 5.45622E+02 3.74011E+01 6.14265E-01 9.27590E+01-3.64706E+00
 -1       424 2.26286E+00 5.42375E+02 7.98298E+01-4.79144E-01 7.34933E+01 2.20688E+00
 -1       425 5.34711E+01 2.23168E+03-1.30478E+03 9.58017E+00 4.75152E+02-6.48505E+01
 -1       426-7.03020E+00 8.91835E+02-1.80104E+02-2.64015E+00 1.42342E+02 1.77058E+01
 -1       427 5.56048E+01 2.25115E+03-1.31821E+03 7.61897E+00 3.95595E+02-6.69517E+01
 -1       428 1.34564E+01 2.05016E+03-1.05789E+03 4.24054E+00 4.17221E+02-3.05470E+01
 -1       429 4.00549E+01 1.47098E+03-8.38388E+02 4.59820E+00 3.09165E+02-3.57378E+01
 -1       430-1.14486E+01 8.90478E+02-1.84686E+02-2.38928E-01 1.18716E+02 1.84224E+01
 -1       431-2.40341E+00 8.50467E+02-2.00225E+02-1.05852E+00 1.40087E+02 1.19606E+01
 -1       432 5.59572E+01 2.18411E+03-1.25525E+03 1.08283E+01 6.27417E+02-6.21071E+01
 -1       433-7.70792E+00 8.86172E+02-1.70946E+02-3.04376E+00 1.92004E+02 1.62605E+01
 -1       434 5.45706E+01 2.20718E+03-1.27994E+03 9.97297E+00 5.52128E+02-6.34660E+01
 -1       435 1.54203E+01 2.00920E+03-1.01454E+03 4.99242E+00 5.50212E+02-3.03600E+01
 -1       436 3.87229E+01 1.44454E+03-8.15586E+02 6.48367E+00 4.10173E+02-3.28329E+01
 -1       437-7.70258E+00 8.88923E+02-1.75708E+02-2.65329E+00 1.66986E+02 1.69970E+01
 -1       438-2.72656E+00 8.41631E+02-1.90113E+02-1.85431E+00 1.87685E+02 1.16016E+01
 -1       439 4.02197E+01 6.47762E+02 9.05906E+01 3.13366E+00 7.47553E+01-1.92017E+01
 -1       440-2.25249E+01 7.66888E+02-1.35612E+02-1.79052E+00 1.21315E+02 1.04397E+01
 -1       441 3.98899E+01 6.50356E+02 8.88902E+01 2.54203E+00 6.17021E+01-1.89275E+01
 -1       442-1.15379E+00 5.95419E+02 2.87682E+01-6.10241E-01 7.57309E+01 3.44688E+00
 -1       443 3.86779E+01 6.38028E+02 9.42782E+01 4.35638E+00 9.70052E+01-1.64736E+01
 -1       444-2.17726E+01 7.57151E+02-1.23132E+02-2.35267E+00 1.60979E+02 9.13816E+00
 -1       445 4.01852E+01 6.44367E+02 9.30619E+01 3.62610E+00 8.58249E+01-1.79164E+01
 -1       446-2.14359E+00 5.86197E+02 3.49991E+01-1.53927E-01 9.96929E+01 4.64776E+00
 -1       447 2.82061E+02-2.31722E+00 1.13563E+02-3.76747E-01-1.56741E+01 1.79438E-01
 -1       448-1.72499E+02-1.14474E+02 2.31879E+02-1.00450E+01-4.54870E+01 6.27726E+01
 -1       449 3.77082E+00-1.15191E+02 5.33353E+01 6.97514E-01-2.26576E+01-4.18649E+00
 -1       450-7.50246E+00-2.36064E+01 2.37140E+02-2.23541E+00-3.44206E+01 1.53414E+01
 -1       451 2.82553E+02-3.08747E+00 1.13517E+02-3.00262E-01-1.28061E+01 3.62437E-01
 -1       452 1.05778E+02-6.36654E+01 2.86289E+01-1.16726E+00-1.24174E+01 8.74634E+00
 -1       453-1.71395E+02-1.15029E+02 2.33946E+02-1.02017E+01-3.75104E+01 6.36619E+01
 -1       454 1.40146E+02-6.13946E+01 7.74991E+01 6.54735E-01-1.87025E+01-5.47569E+00
 -1       455-6.09897E+01-3.94544E+01 3.01291E+02-5.98896E+00-4.48058E+01 3.79283E+01
 -1       456 3.81004E+00-1.15897E+02 5.44206E+01 5.44897E-01-1.90211E+01-4.30174E+00
 -1       457-7.39344E+00-1.06822E+02-1.54520E+01-2.14381E+00-1.22264E+01 1.66192E+01
 -1       458-8.01448E+00-2.57577E+01 2.37710E+02-1.54853E+00-2.88207E+01 1.58957E+01
 -1       459 2.81717E+02-4.77767E-01 1.11470E+02-8.25022E-02-2.09768E+01-2.99242E-01
 -1       460-1.73487E+02-1.11533E+02 2.26092E+02-1.14431E+01-6.00036E+01 6.26758E+01
 -1       461 3.46120E+00-1.12972E+02 5.07983E+01 6.47808E-01-2.98424E+01-3.99223E+00
 -1       462-7.56072E+00-1.98344E+01 2.34003E+02-3.21623E+00-4.47959E+01 1.50623E+01
 -1       463 2.81963E+02-1.24960E+00 1.12607E+02-1.55606E-01-1.82528E+01-6.34501E-02
 -1       464 1.05739E+02-6.26470E+01 2.71978E+01-1.39806E+00-1.62818E+01 8.45905E+00
 -1       465-1.73242E+02-1.13373E+02 2.28528E+02-1.00294E+01-5.35464E+01 6.28181E+01
 -1       466 1.39703E+02-5.95250E+01 7.49668E+01 8.83299E-01-2.47741E+01-5.45608E+00
 -1       467-6.16541E+01-3.57047E+01 2.95957E+02-7.16402E+00-5.89445E+01 3.79210E+01
 -1       468 3.69574E+00-1.13928E+02 5.21858E+01 6.48141E-01-2.60879E+01-4.09394E+00
 -1       469-7.21200E+00-1.05567E+02-1.65042E+01-2.98009E+00-1.59038E+01 1.65063E+01
 -1       470-7.38253E+00-2.12830E+01 2.35627E+02-2.91285E+00-3.99400E+01 1.51770E+01
 -1       471-2.86370E+02-2.29757E+02-2.17442E+01 1.21651E+00-2.78915E+01-8.88696E+00
 -1       472 1.65673E+02 4.61675E+01 2.25995E+02 2.48483E+00-2.41010E+01-1.67443E+01
 -1       473-1.38530E+02-1.69833E+02 2.17454E+01 4.62660E-01-2.57379E+01-3.06455E+00
 -1       474 5.00742E+01-1.83054E+01 1.64786E+02-2.65325E-02-2.44088E+01 4.27302E-01
 -1       475-2.86394E+02-2.30800E+02-2.06160E+01 1.02344E+00-2.33110E+01-8.91086E+00
 -1       476-8.74008E+01-1.20549E+02-6.96780E+00-3.00970E-01-1.51563E+01 2.04087E+00
 -1       477 1.65707E+02 4.55040E+01 2.26901E+02 2.01017E+00-2.00227E+01-1.68216E+01
 -1       478-2.86287E+02-2.27125E+02-2.48449E+01 1.59631E+00-3.71849E+01-8.67307E+00
 -1       479 1.66015E+02 4.83648E+01 2.24387E+02 3.39268E+00-3.11450E+01-1.71504E+01
 -1       480-1.38527E+02-1.67249E+02 1.91440E+01 5.21411E-01-3.41492E+01-3.02230E+00
 -1       481 5.03572E+01-1.57137E+01 1.63285E+02-7.74309E-02-3.14257E+01-9.60385E-02
 -1       482-2.86322E+02-2.28446E+02-2.32669E+01 1.41132E+00-3.24335E+01-8.77288E+00
 -1       483-8.76479E+01-1.19302E+02-8.73006E+00-3.99905E-01-2.00259E+01 2.14124E+00
 -1       484 1.65766E+02 4.71684E+01 2.25031E+02 2.98899E+00-2.79379E+01-1.69407E+01
 -1       485 1.39055E+02 1.21365E+03-2.64720E+02 1.46720E+00 1.98392E+02-8.62801E+00
 -1       486 7.70696E-01 9.77596E+02-6.62726E+01 4.92174E-01 1.39971E+02-5.08079E+00
 -1       487 1.39872E+02 1.19401E+03-2.43022E+02 1.42572E+00 2.62074E+02-7.80909E+00
 -1       488 8.23122E-01 9.63303E+02-5.20842E+01 1.03401E+00 1.84457E+02-5.24058E+00
 -1       489-1.44995E+02 7.71465E+02 3.97124E+01-1.07906E+00 9.80279E+01 8.02678E+00
 -1       490-1.44814E+02 7.62084E+02 5.01284E+01-1.42685E+00 1.29829E+02 7.73753E+00
 -3
    1PSTEP                         3           1           1          
  100CL  101 1.000000000         490                     0    1           1
 -4  FORC        4    1
 -5  F1          1    2    1    0
 -5  F2          1    2    2    0
 -5  F3          1    2    3    0
 -5  ALL         1    2    0    0    1ALL
 -1         1-1.67994E+00 1.31309E+01-1.89192E+00
 -1         2-1.34014E+00 2.25358E+01-3.39370E+00
 -1         3-2.63903E+00 2.36970E-01-6.79661E+00
 -1         4-3.36624E+00 1.86376E-01-3.74803E+00
 -1         5 1.98685E-04 2.94699E+01-4.85365E-03
 -1         6-8.72200E-04 4.26378E+01-9.54359E-04
 -1         7-2.87120E-12-1.09882E-10 2.29837E-13
 -1         8 5.16781E-13-1.47627E-11-1.97997E-12
 -1         9 1.67715E+00-6.62445E+01 1.23950E+01
 -1        10 1.06235E+00-2.78611E-01 1.35411E+01
 -1        11 3.36067E+00-1.10359E+00 2.47662E+01
 -1        12-3.36685E+00-3.89748E-01 1.72630E+01
 -1        13-3.84013E-04-7.63034E+01 2.42952E-03
 -1        14 7.03498E-04-8.07931E+01 2.33074E-03
 -1        15-1.01519E-13 1.14972E-13-6.78242E-14
 -1        16 7.17026E-15 1.84399E-13 2.38698E-14
 -1        17-1.51613E-04-1.34281E+02 4.59162E-03
 -1        18 3.89588E-12 1.22575E-10 7.05357E-12
 -1        19 5.02177E-12-5.57376E-12 3.47211E-12
 -1        20-4.85167E-14 1.15410E-10-1.62470E-12
 -1        21-2.59703E+00 5.93615E-01-6.78795E+00
 -1        22-3.36886E+00 3.23420E-01-3.73907E+00
 -1        23 4.22662E-13 2.72138E-11-3.95106E-12
 -1        24 9.88345E-13 1.82894E-11 1.16795E-13
 -1        25 1.08645E+00-8.57878E-01 1.34757E+01
 -1        26 3.37937E+00-2.16300E+00 2.46597E+01
 -1        27-3.36937E+00-1.13194E+00 1.72117E+01
 -1        28-9.88810E-14-1.42109E-14-8.43769E-14
 -1        29-1.21554E-14-1.70530E-13-3.01981E-14
 -1        30 2.08111E-13 1.48900E-10-5.82630E-12
 -1        31 1.21267E-12 1.03739E-11 2.10854E-12
 -1        32-1.19824E-12-2.13092E-11 4.27158E-12
 -1        33-5.03623E-04 1.52105E+01 3.27682E+00
 -1        34 9.57833E-04 2.21544E+01 6.89162E+00
 -1        35 3.18834E-12-5.98820E-01 1.37103E+01
 -1        36 3.77927E-12-2.81799E-01 6.45194E+00
 -1        37 3.99322E-04-7.42039E+01 8.83115E-03
 -1        38-4.12811E-04-8.90670E+01 4.91260E-03
 -1        39 6.38134E-12-1.15409E-11-1.74462E-11
 -1        40-3.48594E-12-7.63263E-12 1.52131E-11
 -1        41-1.92016E-03-6.55465E+01-1.51274E+01
 -1        42 1.08374E-11 5.26649E-01-2.41155E+01
 -1        43-6.64455E-13 1.32364E+00-3.03054E+01
 -1        44-1.61778E-12 3.78960E-01-1.73528E+01
 -1        45 1.25282E-13-1.19143E+00 1.36157E+01
 -1        46-9.46687E-13-5.63627E-01 6.44116E+00
 -1        47-1.61597E-12-2.45421E-11-2.24887E-12
 -1        48-9.87259E-13 3.93641E-12 8.44658E-13
 -1        49 1.31831E-12 1.57006E+00-2.39478E+01
 -1        50 2.00998E-12 2.64067E+00-3.01777E+01
 -1        51-1.16285E-12 1.12950E+00-1.72280E+01
 -1        52-2.24256E-01 5.99056E+00-1.12637E+00
 -1        53-3.19727E-01-3.12001E-02-2.16167E+00
 -1        54 6.46329E-04 7.25942E+00 3.01150E-03
 -1        55 1.45698E-11-2.04497E-10-7.37591E-12
 -1        56 1.55385E+00-1.30342E+01 1.08833E+00
 -1        57 2.38698E+00 1.00204E-01-2.05245E+00
 -1        58 2.98859E+00 6.16337E-02 2.27882E+00
 -1        59 5.94722E-04 1.37257E+01 9.15579E-04
 -1        60-9.04379E-12-2.18499E-11 3.73211E-12
 -1        61 8.21516E-04-4.36085E+01 3.29110E-03
 -1        62-1.64184E-11-2.68103E-10-9.59829E-13
 -1        63-3.21448E-12-1.29769E-11-3.78781E-12
 -1        64-1.88813E-01 1.79050E-01-2.03666E+00
 -1        65 1.88210E-12-4.52163E-11-1.40721E-12
 -1        66 2.33330E+00 1.67089E-01-2.10584E+00
 -1        67 2.86636E+00-2.05971E-01 2.34126E+00
 -1        68 1.97989E-12-4.90274E-13-8.30225E-13
 -1        69 2.38320E-12-1.32407E-11 7.70694E-13
 -1        70-4.18020E-12-1.22213E-11-1.51568E-12
 -1        71 9.39009E-04 9.78784E+00 4.89371E+00
 -1        72 2.11491E-11-4.24783E-01 9.72563E+00
 -1        73 1.54661E-03-2.88420E+01-2.26286E-03
 -1        74 2.45768E-11-3.99422E-11 2.35274E-12
 -1        75 9.24669E-04-2.17366E+01-1.02786E+01
 -1        76 2.38251E-11 4.56420E-02-2.08997E+00
 -1        77-3.71296E-12 9.04330E-01-2.07050E+01
 -1        78-2.11350E-12-8.43250E-01 9.63670E+00
 -1        79-5.55183E-13-1.60796E-11-5.15277E-12
 -1        80 4.66619E-12 1.23696E-01-1.88670E+00
 -1        81 7.57894E-13 1.82297E+00-2.08330E+01
 -1        82-3.54044E-05 3.20768E+00 2.50764E-03
 -1        83 3.44216E-04-2.90002E+00-3.57673E-03
 -1        84 1.20163E-11 1.00295E-11-5.35892E-12
 -1        85-6.28208E-12 5.30312E-11-1.64057E-12
 -1        86-9.09019E-04-1.37196E+01-3.51849E-03
 -1        87-1.08086E-03 6.32527E+00 7.84864E-03
 -1        88 1.37923E-11-4.79948E-11 1.26635E-12
 -1        89-4.27502E-12-2.82608E-11 3.81432E-12
 -1        90-1.52236E-03-1.42178E+01 3.87546E-03
 -1        91-7.09289E-12 1.62226E-12-8.76457E-13
 -1        92-1.05448E-11-5.44735E-11 1.95783E-12
 -1        93-2.03746E-12-5.48588E-11-9.76910E-14
 -1        94 8.70550E-12-1.57385E-11-1.24833E-12
 -1        95-3.82261E-01 7.81020E-12 2.41057E-12
 -1        96-3.77449E-12 7.22977E-13-3.41949E-13
 -1        97-1.95595E-12-7.52287E-12 1.71485E-12
 -1        98-4.03887E-12-4.32827E-12 1.19522E-13
 -1        99-5.31791E-12 4.30767E-12-1.24634E-12
 -1       100 8.97994E-13-1.68731E-11 1.46528E-12
 -1       101-6.92426E-04 9.20343E-01-5.38837E-04
 -1       102-2.53970E-04 2.52103E-01 1.20055E-03
 -1       103-1.19607E-12-7.58166E-13-3.47391E-13
 -1       104 2.68531E-12-2.83052E-13 2.23738E-13
 -1       105 9.49250E-04-6.01850E+00 8.94923E-04
 -1       106 5.70382E-04-1.62782E+00-2.58682E-03
 -1       107-4.95769E-12 1.83172E-12-6.40959E-13
 -1       108 1.46037E-13 9.74990E-13-4.13444E-12
 -1       109 5.98077E-04-4.46909E+00-6.52014E-04
 -1       110 6.31412E-13 1.65619E-12-9.24798E-14
 -1       111-7.09094E-14 6.30905E-13 1.05228E-13
 -1       112-7.75256E-13 9.33161E-12 2.89284E-13
 -1       113 2.19877E-13 1.33590E-12-1.04831E-13
 -1       114 2.02689E-12 5.17364E-13-3.13818E-13
 -1       115-6.40575E-13 1.86517E-14-1.53211E-13
 -1       116-1.64021E-12-2.82441E-13 6.01186E-14
 -1       117 2.63345E-12 3.21359E-12 1.20575E-13
 -1       118 7.65814E-13-1.28697E-12 1.45550E-13
 -1       119-9.62362E-13 4.59059E-13 1.08660E-13
 -1       120 8.13392E-05-5.23481E+00 4.44434E-04
 -1       121 6.27794E-13-3.54016E-12-3.19698E-13
 -1       122 9.76136E-05 2.45219E+01-7.81340E-04
 -1       123 1.90535E-13 1.31916E-12-1.39312E-13
 -1       124-2.57550E-04 2.23872E+01-5.54521E-04
 -1       125 2.46756E-12-3.80818E-12 1.52952E-13
 -1       126 1.05906E-12 1.01755E-12 8.98088E-14
 -1       127 2.45887E-12 7.70939E-13 1.52545E-13
 -1       128-1.22541E-14 1.06581E-13-7.28306E-14
 -1       129 1.72538E-12-1.04010E-12-3.31306E-13
 -1       130 7.93627E-12-9.55680E-13-1.20570E-13
 -1       131 6.99453E-05-1.37499E+00-2.75568E-05
 -1       132-2.18603E-12 9.52627E-13 2.94830E-13
 -1       133-6.57243E-05 8.56152E+00 6.46116E-05
 -1       134 1.47509E-13 8.57270E-14 2.80572E-13
 -1       135-1.42328E-05 5.00132E+00-1.08630E-04
 -1       136-1.66464E-13 2.38118E-12 8.23473E-14
 -1       137 3.85517E-12 1.08553E-12-4.98802E-14
 -1       138 3.04647E-12 3.65263E-13 1.04250E-13
 -1       139 6.84395E-13 5.68434E-14-1.37890E-13
 -1       140 6.45331E-13-1.36275E-12-5.67671E-14
 -1       141-1.15256E-12-1.73639E-12-2.51965E-13
 -1       142-2.63941E+00 9.36218E-01-6.68817E+00
 -1       143-3.36556E+00 4.63783E-01-3.71929E+00
 -1       144-1.11842E-12 2.97290E-11-6.39312E-13
 -1       145 1.05019E-12 1.28136E-11 3.47533E-12
 -1       146 1.08621E+00-1.49345E+00 1.34005E+01
 -1       147 3.36340E+00-3.22418E+00 2.45827E+01
 -1       148-3.36827E+00-1.87379E+00 1.71557E+01
 -1       149-2.40016E-14-1.88900E-14-8.34185E-15
 -1       150 7.97882E-14-6.32897E-14-8.50153E-14
 -1       151 1.86517E-14 1.16880E-11-1.74667E-12
 -1       152 7.97064E-13-5.12558E-12 1.59006E-12
 -1       153-8.39391E-13 3.42236E-12 1.50402E-12
 -1       154-1.33949E+00-2.16062E+01-7.21728E+00
 -1       155-1.68210E+00-1.25988E+01-4.12932E+00
 -1       156 8.72199E-04-4.19912E+01-7.40346E+00
 -1       157-1.98714E-04-2.90238E+01-5.11292E+00
 -1       158 1.06243E+00-2.06572E+00 1.33107E+01
 -1       159 1.67503E+00 6.31022E+01 2.37094E+01
 -1       160-3.36524E+00-2.61158E+00 1.70453E+01
 -1       161-7.03483E-04 7.95673E+01 1.40276E+01
 -1       162 3.84008E-04 7.51458E+01 1.32479E+01
 -1       163 2.72282E-14-6.50789E-11 8.29808E-13
 -1       164 1.51641E-04 1.32242E+02 2.33135E+01
 -1       165 2.88224E-13-1.97749E-11 5.69822E-13
 -1       166 1.38449E-12-1.76546E+00 1.34118E+01
 -1       167 2.67994E-12-8.43078E-01 6.40465E+00
 -1       168-2.35367E-13-3.65353E-12-7.55437E-13
 -1       169 9.23471E-13 9.62301E-13 2.49607E-12
 -1       170-3.55650E-13 2.60330E+00-2.37738E+01
 -1       171 1.00811E-12 3.95768E+00-3.00655E+01
 -1       172-1.44353E-12 1.88426E+00-1.72074E+01
 -1       173-9.57796E-04-2.29898E+01 2.79483E+00
 -1       174 5.03600E-04-1.55412E+01 5.39916E-01
 -1       175 4.12780E-04 8.77154E+01 1.54620E+01
 -1       176-3.99261E-04 7.30791E+01 1.28771E+01
 -1       177-4.36609E-13 3.62044E+00-2.35245E+01
 -1       178 1.92012E-03 6.71785E+01-3.52673E+00
 -1       179-1.66533E-15 2.62585E+00-1.70620E+01
 -1       180-3.18276E-01 3.98134E-01-2.07184E+00
 -1       181-3.82927E-12-4.80554E-11-5.70694E-12
 -1       182 2.33316E+00 2.02869E-01-2.13577E+00
 -1       183 2.98947E+00-4.62635E-01 2.23116E+00
 -1       184 4.08109E-12 3.20974E-12 5.09663E-13
 -1       185-1.33492E-12 3.86551E-11-6.50638E-13
 -1       186-1.19420E-12 3.88890E-12 1.98667E-12
 -1       187-2.22950E-01-5.71027E+00-2.11234E+00
 -1       188-6.46273E-04-7.14876E+00-1.26364E+00
 -1       189 2.38551E+00 2.70270E-01-2.11044E+00
 -1       190 1.55353E+00 1.26542E+01 3.33738E+00
 -1       191-5.94752E-04-1.35166E+01-2.38429E+00
 -1       192 3.97213E-12-6.50569E-11-4.00753E-12
 -1       193-8.21558E-04 4.29466E+01 7.56947E+00
 -1       194-6.28454E-12-1.23334E+00 9.36939E+00
 -1       195-1.93027E-12-2.74901E-11 8.02729E-13
 -1       196 6.44010E-12 1.87306E-01-1.71051E+00
 -1       197-2.28173E-12 2.70431E+00-2.05439E+01
 -1       198-9.38912E-04-1.04578E+01 2.94251E+00
 -1       199-1.54665E-03 2.84033E+01 5.01061E+00
 -1       200-2.50033E-12 2.58853E-01-1.68194E+00
 -1       201-9.24719E-04 2.31900E+01-6.34421E+00
 -1       202-5.39807E-12 1.60338E-11-1.07930E-12
 -1       203-1.67671E-12-2.67433E-11 1.32647E-12
 -1       204-2.25796E-12-4.03150E-14 9.64496E-13
 -1       205-2.64538E-13-1.37495E-11 1.48166E-12
 -1       206 9.23622E-13 1.54958E-11 9.98784E-13
 -1       207 6.11440E-12 3.94012E-12 2.19344E-12
 -1       208 6.57672E-13-2.55646E-11-6.41227E-13
 -1       209-3.44220E-04 2.85534E+00 5.07106E-01
 -1       210 3.53977E-05-3.15855E+00-5.59485E-01
 -1       211 1.08086E-03-6.22780E+00-1.10610E+00
 -1       212 9.09024E-04 1.35106E+01 2.38586E+00
 -1       213 3.37433E-12-1.88835E-12-8.22279E-13
 -1       214 1.52236E-03 1.40025E+01 2.46508E+00
 -1       215-1.77145E-12 1.15486E-11 1.44893E-12
 -1       216 1.44930E-12-4.14408E-12-4.34271E-13
 -1       217-1.26365E-12 2.20709E-12-7.16302E-14
 -1       218 1.51164E-12 1.17062E-12 1.09922E-12
 -1       219-7.17124E-13 3.38602E-13-6.15117E-13
 -1       220 1.09761E-12 6.15931E-13 6.21031E-16
 -1       221 1.19749E-12-7.73793E-13-1.97502E-13
 -1       222-4.54173E-13-9.28540E-13-1.74295E-13
 -1       223 2.53970E-04-2.48066E-01-4.49597E-02
 -1       224 6.92426E-04-9.06464E-01-1.59287E-01
 -1       225-5.70382E-04 1.60264E+00 2.85215E-01
 -1       226-9.49249E-04 5.92723E+00 1.04422E+00
 -1       227-9.77964E-13-2.08619E-12-1.44523E-13
 -1       228-5.98076E-04 4.40108E+00 7.76690E-01
 -1       229 1.02523E-12 8.97840E-13-1.90493E-13
 -1       230-1.31044E-12-1.60074E-12 3.65498E-13
 -1       231 1.93068E-12 1.79297E-12 2.73184E-14
 -1       232-1.41727E-12-3.57493E-13 4.49682E-13
 -1       233 3.12024E-12 4.11130E-12 8.33838E-14
 -1       234-8.13390E-05 5.15539E+00 9.08583E-01
 -1       235-9.76133E-05-2.41495E+01-4.25743E+00
 -1       236-3.88476E-12-1.10311E-12-3.85596E-13
 -1       237 2.57549E-04-2.20471E+01-3.88694E+00
 -1       238-4.03247E-12-7.94545E-13 6.87748E-14
 -1       239-1.22517E-12 9.42912E-13-8.38650E-13
 -1       240 2.21849E-12 1.46751E-12 2.19796E-13
 -1       241 3.17665E-12 3.16269E-12 6.12978E-13
 -1       242-6.99453E-05 1.35411E+00 2.38793E-01
 -1       243 6.57241E-05-8.43144E+00-1.48676E+00
 -1       244 1.26231E-12 2.95444E-13-1.38500E-14
 -1       245 1.42328E-05-4.92536E+00-8.68362E-01
 -1       246 1.33590E-03-3.61642E+01 9.34479E-03
 -1       247 3.18409E-03-7.68207E+01-4.27676E-02
 -1       248-3.04218E-12 1.03828E-12 7.69385E-13
 -1       249-1.99447E-12-3.44030E-13 5.20084E-13
 -1       250-2.73550E-04-3.58668E+01-1.62185E-04
 -1       251 9.70400E-04-7.79059E+01 7.64217E-03
 -1       252-1.42419E-11-5.77732E-13 1.77674E-12
 -1       253-1.05715E-11-3.04257E-13 1.60674E-12
 -1       254-3.79392E-03 2.26514E+02-1.01371E-02
 -1       255 5.42344E-14 5.76650E-13-3.41127E-12
 -1       256 4.46398E-12-1.33671E-13-6.75882E-12
 -1       257-7.23588E-13-9.39138E-13 1.44462E-12
 -1       258 6.70275E-04 8.18502E+01 9.67178E-04
 -1       259-4.78695E-03 1.87657E+02-1.16134E-02
 -1       260 6.30515E-13 1.46983E-12 9.30114E-13
 -1       261-4.19678E-15-3.16860E-13 4.26063E-13
 -1       262 1.58991E-04 1.25904E+02 2.43991E-04
 -1       263 2.19948E-12 4.50544E-13 3.55386E-12
 -1       264 1.46982E-11 3.80798E-13-4.30838E-12
 -1       265 9.05898E-13 3.63015E-13-2.38918E-12
 -1       266-1.43030E-12-2.55795E-13-7.10187E-12
 -1       267-1.05069E-12 9.94760E-13-2.41140E-12
 -1       268-2.52556E-12-3.41061E-13-9.85878E-13
 -1       269-2.49611E-12 1.01608E-12-2.65565E-13
 -1       270 1.25927E-12 9.56568E-13-1.70020E-12
 -1       271 1.74871E-12-3.12639E-13 4.65405E-13
 -1       272 8.21343E-13 5.70211E-13 1.20037E-12
 -1       273 1.27567E-12-8.81073E-13-1.13687E-12
 -1       274-7.94118E-13 7.53175E-13 8.05578E-13
 -1       275 3.17648E-13-1.18426E-12 6.23399E-13
 -1       276 9.17074E-12-1.73372E-12 8.89955E-13
 -1       277 1.66338E-12 7.80105E-14-2.26701E-13
 -1       278 1.74445E-04-1.30278E+01 2.97392E-05
 -1       279-1.20901E-03-2.82007E+01-9.61956E-04
 -1       280 3.87917E-12 1.53153E-12 1.36800E-12
 -1       281 2.09818E-12 5.30687E-14 4.32494E-13
 -1       282-3.00272E-04 4.72600E+01-4.84510E-04
 -1       283 2.20795E-03 1.05012E+02 2.44290E-03
 -1       284-3.39333E-12 4.93684E-13-2.26178E-13
 -1       285 2.32718E-12-2.31740E-13 3.69561E-13
 -1       286 5.50603E-05 4.54895E+01 1.61804E-04
 -1       287-1.70920E-12-2.12985E-12 6.43059E-13
 -1       288-3.97811E-12-4.49224E-13-1.83026E-12
 -1       289 2.24200E-12-1.12443E-12-5.43114E-13
 -1       290 4.31895E-12 8.88178E-13-1.36913E-12
 -1       291 2.63784E-12 9.02389E-13-4.55636E-13
 -1       292 7.40373E-13-9.94760E-13 6.09290E-13
 -1       293-1.26386E-12-6.60805E-13 2.20268E-13
 -1       294-2.32261E-12-9.43051E-13 8.10622E-13
 -1       295-2.16840E-16-1.12976E-12 2.05924E-12
 -1       296-5.30331E-14-4.80185E-13 1.34726E-13
 -1       297 8.08049E-03-3.93311E+01 6.04526E-01
 -1       298-1.17698E-13-6.61916E-02 1.50127E+00
 -1       299-1.57629E-04-4.16679E+01-6.97473E-03
 -1       300-3.06672E-13 6.24646E-13-1.50635E-13
 -1       301-3.66697E-03 2.83033E+02-8.52246E-03
 -1       302-1.02229E-12-8.08521E-01 3.70257E+01
 -1       303-6.04142E-13-8.91509E-13-5.83178E-12
 -1       304 1.24612E-03 1.07323E+02 1.06466E-02
 -1       305-5.13388E-13-2.83339E-13-1.82700E-12
 -1       306-1.84143E-03 1.49601E+02 5.75571E-04
 -1       307-3.35957E-13-2.09070E-12 4.27422E-13
 -1       308 1.00738E-11 4.33910E-13-1.94504E-12
 -1       309 8.80990E-13-1.53616E-01 1.75322E+00
 -1       310 3.44367E-01-4.76774E-12-4.57323E-12
 -1       311-5.04818E-13-2.39781E+00 3.65779E+01
 -1       312 2.95125E-13-1.98952E-12 6.99885E-13
 -1       313-1.93910E-13-9.09495E-13-1.11022E-12
 -1       314-9.13884E-13-4.30156E-13-1.26888E-13
 -1       315-6.77726E-13-8.52651E-13-1.01252E-12
 -1       316-7.42737E-04-1.45876E+01 2.42669E-03
 -1       317-2.92346E-12 6.05446E-13-2.33591E-13
 -1       318 4.16964E-04 5.72540E+01-4.53721E-03
 -1       319-1.49989E-12-2.80068E-13-7.19651E-13
 -1       320 1.07801E-03 5.23997E+01-1.48117E-04
 -1       321-1.93486E-13-2.34618E-13-5.42441E-13
 -1       322 2.29025E-12-2.32717E-13 4.50702E-13
 -1       323-1.20444E-02 8.52651E-14-9.07496E-13
 -1       324 4.99221E-02 4.24194E-12-8.17124E-13
 -1       325-7.00343E-14-5.34184E-13-6.14314E-13
 -1       326 1.09687E-12-1.29319E-12 1.61648E-13
 -1       327-5.63802E-01 2.20712E+00-1.52743E+00
 -1       328 9.66086E-04-3.80819E+01-6.58235E+00
 -1       329-2.45165E-13 5.73011E-01-1.31326E+01
 -1       330-1.10773E+00 1.68788E-01-3.09127E+00
 -1       331-3.72046E-01 6.81336E+00 1.45802E+00
 -1       332 1.23694E-03-6.99372E+01 1.46245E-02
 -1       333-5.82312E-14 5.77316E-15 3.41283E-12
 -1       334-8.00367E-01-1.70562E-01 2.95530E+00
 -1       335-5.88817E-04-9.14497E+00-1.30404E-02
 -1       336 2.70090E-13-1.42730E-01 6.53568E+00
 -1       337 2.84842E-15-5.19654E-14-1.70974E-13
 -1       338-1.04758E+00 1.64596E-01-6.74233E+00
 -1       339 6.21095E-01-8.35252E+00-3.30398E-01
 -1       340-2.38400E-03 7.15550E+01 6.94158E-04
 -1       341-1.58436E-13-5.68323E-13-4.54459E-12
 -1       342 1.27396E+00 5.14276E-02-6.37715E-01
 -1       343 2.32523E-05-2.24972E+01 1.33152E-02
 -1       344 5.90222E-14 1.07395E-12 2.66559E-12
 -1       345-1.68754E-14-2.92467E-13-3.76810E-13
 -1       346 7.81979E-01-5.75210E-02 2.89677E+00
 -1       347 3.64583E-13 1.14399E+00-1.30753E+01
 -1       348-1.22588E+00 2.66798E-01-3.06100E+00
 -1       349 7.82291E-14-5.68434E-14 1.98241E-12
 -1       350-7.75963E-01-2.59624E-01 2.97782E+00
 -1       351 5.06262E-14-4.25451E-01 6.48932E+00
 -1       352-5.15629E-14 1.56319E-13 2.21601E-13
 -1       353-1.07019E+00 4.48811E-01-6.68681E+00
 -1       354-4.42285E-14 3.83693E-13-4.04121E-13
 -1       355 1.14512E+00 4.74880E-02-5.80228E-01
 -1       356 5.74402E-14-7.27918E-13 1.25377E-12
 -1       357 4.50889E-14-3.23297E-13-4.84501E-13
 -1       358 8.01870E-01-1.95488E-01 2.91082E+00
 -1       359-2.33162E-01 4.34253E+00 1.57170E+00
 -1       360-4.26958E-04-3.16264E+01-5.70779E-04
 -1       361-7.14220E-14-3.81972E-13 1.96104E-12
 -1       362-4.56637E-01-1.33063E-01 3.15358E+00
 -1       363 5.62642E-01-8.70639E+00-1.31333E+00
 -1       364 1.64891E-04 4.27545E+01-1.11850E-03
 -1       365 6.46497E-14-2.57017E-14-1.63392E-12
 -1       366 1.11166E+00 9.31766E-02-2.62653E+00
 -1       367-3.69699E-04-1.22516E+01-8.08665E-04
 -1       368 6.02296E-14 2.42223E-13 9.34475E-13
 -1       369 2.65760E-14 1.58103E-14 1.55875E-13
 -1       370 1.95974E-01-8.62665E-02 3.79072E+00
 -1       371 1.31950E-13 3.26850E-13-2.45315E-12
 -1       372-4.56561E-01-2.74396E-01 3.15074E+00
 -1       373 7.75144E-14-1.03739E-12 8.43769E-14
 -1       374 1.12825E+00 2.29271E-01-2.61786E+00
 -1       375 2.08861E-14-1.35281E-13 7.38298E-15
 -1       376 3.32512E-14 1.38556E-13-1.13465E-13
 -1       377 2.05606E-01-2.53346E-01 3.76009E+00
 -1       378 1.09128E-04 1.29112E+02 1.63886E+01
 -1       379-6.61970E-14-1.42941E+00 3.27529E+01
 -1       380-3.86843E-03 2.17980E+02-5.26157E-02
 -1       381 5.57887E-14 3.88578E-13-3.30613E-12
 -1       382-7.82915E-14-2.85540E+00 3.26347E+01
 -1       383-3.03493E-13-2.21689E-12-3.09086E-12
 -1       384-7.02732E-04 9.04233E+01 4.15597E-03
 -1       385 3.77892E-14 9.78440E-13-9.81437E-14
 -1       386 2.02255E-13 2.13163E-13 1.40066E-12
 -1       387 1.11877E-12 1.06892E-12-3.51685E-12
 -1       388 8.85195E-13 1.23901E-12 5.77138E-12
 -1       389 5.95518E-12-1.18282E-12 1.79759E-12
 -1       390-1.18259E-12 1.93335E-12-9.51249E-13
 -1       391-1.61371E-12 1.54543E-13 1.12177E-12
 -1       392-2.09388E-13-1.41887E-12-8.46911E-12
 -1       393-1.64257E-12 2.85549E-13 4.91962E-12
 -1       394 8.85798E-13 4.41036E-14-8.33222E-14
 -1       395-2.56006E-12-8.35401E-13-2.83384E-13
 -1       396-2.06441E-12 4.35315E-13 1.68708E-12
 -1       397 3.67864E-12 1.33758E-12 3.39445E-13
 -1       398 1.19524E-12-1.59436E-12-9.03357E-13
 -1       399-3.18415E-03 7.56505E+01 1.33827E+01
 -1       400-1.33595E-03 3.56200E+01 6.27127E+00
 -1       401-9.70402E-04 7.67241E+01 1.35208E+01
 -1       402 2.73543E-04 3.53221E+01 6.22839E+00
 -1       403-8.07687E-13-1.46549E-12-2.40985E-12
 -1       404 3.79403E-03-2.23081E+02-3.93249E+01
 -1       405 5.34572E-13-1.83853E-13-3.19744E-13
 -1       406 4.78696E-03-1.84809E+02-3.25751E+01
 -1       407-6.70274E-04-8.06072E+01-1.42142E+01
 -1       408 3.53726E-12 3.20656E-12-2.79536E-12
 -1       409-1.58983E-04-1.23992E+02-2.18633E+01
 -1       410 1.92638E-12-2.37430E-13-1.83349E-13
 -1       411 1.66855E-12 3.58269E-13-3.33209E-13
 -1       412-3.33204E-12 3.86136E-13 2.64559E-13
 -1       413-2.30227E-12 6.39416E-13-1.06119E-12
 -1       414-9.19232E-13-9.69461E-13-3.94124E-13
 -1       415 9.89486E-15-9.95065E-13 7.41129E-13
 -1       416 1.24872E-11 2.94320E-13 1.49256E-13
 -1       417-2.05021E-12-1.10578E-13-4.52194E-13
 -1       418 1.20901E-03 2.77722E+01 4.89796E+00
 -1       419-1.74445E-04 1.28299E+01 2.26223E+00
 -1       420-2.20795E-03-1.03417E+02-1.82376E+01
 -1       421 3.00273E-04-4.65422E+01-8.20614E+00
 -1       422-5.85238E-13 2.23821E-13 1.46886E-13
 -1       423-5.50604E-05-4.47985E+01-7.89933E+00
 -1       424-7.39579E-13-6.46372E-13 1.35170E-14
 -1       425 4.99392E-13-2.56361E-01 1.94425E+00
 -1       426-5.74940E-06 3.40193E-13 3.48134E-13
 -1       427-3.71703E-13-3.96688E+00 3.62263E+01
 -1       428-1.45939E-12 1.19926E-12 7.58060E-12
 -1       429 6.82349E-14 4.63740E-13 6.54810E-13
 -1       430 2.15420E-05-8.51125E-13-4.77804E-13
 -1       431-4.81586E-12 1.15672E-12 5.96440E-12
 -1       432-8.08048E-03 3.85787E+01 7.72015E+00
 -1       433 1.57628E-04 4.10339E+01 7.24249E+00
 -1       434-3.33733E-13-5.51935E+00 3.58630E+01
 -1       435 3.66697E-03-2.78736E+02-4.91404E+01
 -1       436-1.24613E-03-1.05692E+02-1.86472E+01
 -1       437-4.65043E-13 4.65187E-13 1.96474E-13
 -1       438 1.84143E-03-1.47329E+02-2.59786E+01
 -1       439-5.52318E-07 2.70450E-13-6.69242E-13
 -1       440 7.27948E-07-7.17315E-13-8.90173E-14
 -1       441 7.53397E-07-2.60125E-13 5.32338E-13
 -1       442-1.45016E-11 8.68194E-14 1.39031E-12
 -1       443 7.42736E-04 1.43665E+01 2.53073E+00
 -1       444-4.16963E-04-5.63850E+01-9.93760E+00
 -1       445 1.08166E-12 6.46816E-13 1.18182E-12
 -1       446-1.07801E-03-5.16036E+01-9.09895E+00
 -1       447 5.59164E-13 1.71085E+00-1.29999E+01
 -1       448-1.10964E+00 3.74365E-01-3.10417E+00
 -1       449 5.43315E-14-2.84217E-14 1.01402E-12
 -1       450-8.01012E-01-3.43646E-01 2.94534E+00
 -1       451-5.05991E-13-7.07979E-01 6.46539E+00
 -1       452-3.02189E-14-2.36401E-13-7.47846E-13
 -1       453-1.07160E+00 7.17718E-01-6.64153E+00
 -1       454-1.75054E-13-5.63993E-14-1.47438E-12
 -1       455 1.26995E+00 5.28609E-02-6.38545E-01
 -1       456-2.29247E-13-4.75397E-13 1.84608E-12
 -1       457-3.54231E-14-2.24668E-13-2.19325E-13
 -1       458 8.02328E-01-3.12400E-01 2.89946E+00
 -1       459-9.66098E-04 3.86387E+01 1.84466E-01
 -1       460-5.63866E-01-1.90276E+00-1.91335E+00
 -1       461-1.23692E-03 6.88776E+01 1.21302E+01
 -1       462-3.71385E-01-6.96613E+00 2.53495E-01
 -1       463 4.79061E-14-9.85792E-01 6.40538E+00
 -1       464 5.88814E-04 9.00372E+00 1.60086E+00
 -1       465-1.04618E+00 9.98820E-01-6.61383E+00
 -1       466 2.38398E-03-7.04682E+01-1.24263E+01
 -1       467 6.22712E-01 8.29413E+00 1.12334E+00
 -1       468-2.84300E-13-2.36033E-13-3.39884E-12
 -1       469-2.32491E-05 2.21574E+01 3.89344E+00
 -1       470 7.81323E-01-4.45435E-01 2.85932E+00
 -1       471-1.49325E-13 5.13145E-13 1.68340E-12
 -1       472-4.56915E-01-4.16766E-01 3.12812E+00
 -1       473 5.96953E-14-6.64635E-13-9.12964E-13
 -1       474 1.11189E+00 3.66923E-01-2.60183E+00
 -1       475-4.56718E-14-4.24327E-13-1.17628E-13
 -1       476-3.46945E-16-3.24740E-15-1.67644E-13
 -1       477 2.05794E-01-4.05743E-01 3.74563E+00
 -1       478 4.26916E-04 3.11468E+01 5.49259E+00
 -1       479-2.33636E-01-4.55127E+00 7.95052E-01
 -1       480-1.64850E-04-4.21068E+01-7.42343E+00
 -1       481 5.63135E-01 8.79978E+00 2.15315E-01
 -1       482 5.58720E-14-3.77476E-14-9.90097E-13
 -1       483 3.69698E-04 1.20657E+01 2.12832E+00
 -1       484 1.96621E-01-5.70839E-01 3.74827E+00
 -1       485 2.09679E-13-4.27429E+00 3.24766E+01
 -1       486-1.59400E-13 2.94320E-13-1.12088E-12
 -1       487-1.09127E-04-1.29979E+02-6.38569E+00
 -1       488 3.86837E-03-2.14675E+02-3.77997E+01
 -1       489-7.64666E-14 8.02469E-13-5.33240E-13
 -1       490 7.02790E-04-8.90521E+01-1.57065E+01
 -3
    1PSTEP                         4           1           2          
  100CL  102 2.000000000         490                     0    2           1
 -4  DISP        4    1
 -5  D1          1    2    1    0
 -5  D2          1    2    2    0
 -5  D3          1    2    3    0
 -5  ALL         1    2    0    0    1ALL
 -1         1 2.22060E-19 1.76342E-23-3.07569E-19
 -1         2-5.44078E-20 2.94086E-24-8.82372E-20
 -1         3 0.00000E+00 0.00000E+00 0.00000E+00
 -1         4 0.00000E+00 0.00000E+00 0.00000E+00
 -1         5 2.97134E-03-2.16560E-07-5.13298E-03
 -1         6 1.90205E-03-1.54916E-07-2.42172E-03
 -1         7 1.90104E-03 1.07723E-04-2.41973E-03
 -1         8 2.97256E-03 2.26039E-04-5.12891E-03
 -1         9 6.88706E-20 1.86297E-23-1.98498E-19
 -1        10 0.00000E+00 0.00000E+00 0.00000E+00
 -1        11 0.00000E+00 0.00000E+00 0.00000E+00
 -1        12 0.00000E+00 0.00000E+00 0.00000E+00
 -1        13 1.74289E-03 2.52773E-08-2.66839E-03
 -1        14 2.30480E-04-2.54840E-08-1.00281E-03
 -1        15 2.30616E-04 4.48438E-05-1.00234E-03
 -1        16 1.74314E-03 1.17580E-04-2.66558E-03
 -1        17 2.16728E-03-3.54606E-08-3.78807E-03
 -1        18 1.90158E-03 5.37828E-05-2.42101E-03
 -1        19 2.16712E-03 1.63997E-04-3.78490E-03
 -1        20 2.97183E-03 1.12909E-04-5.13222E-03
 -1        21 0.00000E+00 0.00000E+00 0.00000E+00
 -1        22 0.00000E+00 0.00000E+00 0.00000E+00
 -1        23 1.90016E-03 2.11275E-04-2.41358E-03
 -1        24 2.97376E-03 4.47609E-04-5.11445E-03
 -1        25 0.00000E+00 0.00000E+00 0.00000E+00
 -1        26 0.00000E+00 0.00000E+00 0.00000E+00
 -1        27 0.00000E+00 0.00000E+00 0.00000E+00
 -1        28 2.30919E-04 8.75667E-05-1.00026E-03
 -1        29 1.74354E-03 2.32613E-04-2.65829E-03
 -1        30 1.90057E-03 1.59528E-04-2.41702E-03
 -1        31 2.16663E-03 3.30188E-04-3.77324E-03
 -1        32 2.97327E-03 3.36896E-04-5.12312E-03
 -1        33 8.47820E-03 2.16358E-07-1.03252E-02
 -1        34 7.21773E-03 7.03525E-08-6.25498E-03
 -1        35 7.21825E-03 2.74665E-04-6.25165E-03
 -1        36 8.48055E-03 4.52340E-04-1.03210E-02
 -1        37 5.22606E-03 2.95077E-07-7.76552E-03
 -1        38 3.66204E-03 2.86248E-07-3.88962E-03
 -1        39 3.66247E-03 1.72477E-04-3.88546E-03
 -1        40 5.22677E-03 3.40310E-04-7.75842E-03
 -1        41 7.82985E-03-2.74717E-07-8.33236E-03
 -1        42 7.21844E-03 1.37357E-04-6.25607E-03
 -1        43 7.83012E-03 3.62695E-04-8.32717E-03
 -1        44 8.47910E-03 2.26440E-04-1.03254E-02
 -1        45 7.21736E-03 5.45571E-04-6.23455E-03
 -1        46 8.48049E-03 8.99986E-04-1.02872E-02
 -1        47 3.66237E-03 3.38856E-04-3.87391E-03
 -1        48 5.22749E-03 6.76865E-04-7.73703E-03
 -1        49 7.21747E-03 4.10154E-04-6.24525E-03
 -1        50 7.82998E-03 7.26596E-04-8.30289E-03
 -1        51 8.48080E-03 6.76248E-04-1.03055E-02
 -1        52 3.80004E-19 5.10124E-24 3.78797E-19
 -1        53 0.00000E+00 0.00000E+00 0.00000E+00
 -1        54 1.47621E-03-5.06272E-08 3.29942E-05
 -1        55 1.47371E-03 1.12423E-06 3.31442E-05
 -1        56-2.44605E-20 7.48426E-24-2.57382E-21
 -1        57 0.00000E+00 0.00000E+00 0.00000E+00
 -1        58 0.00000E+00 0.00000E+00 0.00000E+00
 -1        59 4.62370E-04-3.25429E-08 2.78776E-04
 -1        60 4.58088E-04-1.09430E-05 2.80812E-04
 -1        61 1.55190E-03 4.53342E-08-9.87022E-04
 -1        62 1.47494E-03 5.02867E-07 3.34264E-05
 -1        63 1.55327E-03 4.19303E-05-9.86548E-04
 -1        64 0.00000E+00 0.00000E+00 0.00000E+00
 -1        65 1.47282E-03-2.88459E-06 3.36412E-05
 -1        66 0.00000E+00 0.00000E+00 0.00000E+00
 -1        67 0.00000E+00 0.00000E+00 0.00000E+00
 -1        68 4.54190E-04-2.46423E-05 2.82151E-04
 -1        69 1.47329E-03-9.44399E-07 3.36389E-05
 -1        70 1.55476E-03 8.60826E-05-9.83699E-04
 -1        71 5.71692E-03 2.26634E-07-1.84667E-03
 -1        72 5.70976E-03 8.72948E-05-1.84729E-03
 -1        73 3.54777E-03 1.33238E-07-7.72210E-04
 -1        74 3.54161E-03 3.60244E-05-7.71809E-04
 -1        75 6.31602E-03-1.90902E-07-4.09309E-03
 -1        76 5.71257E-03 4.38203E-05-1.84870E-03
 -1        77 6.31276E-03 1.77035E-04-4.09194E-03
 -1        78 5.69508E-03 1.61501E-04-1.84573E-03
 -1        79 3.53116E-03 6.74672E-05-7.70910E-04
 -1        80 5.70272E-03 1.24428E-04-1.84784E-03
 -1        81 6.31080E-03 3.57313E-04-4.08215E-03
 -1        82 1.81215E-02 2.63531E-07-1.70973E-03
 -1        83 1.60158E-02 1.40209E-08-8.09200E-05
 -1        84 1.61928E-02 4.68040E-06-7.91878E-05
 -1        85 1.83922E-02 7.44860E-05-1.67613E-03
 -1        86 1.18058E-02-5.58656E-08-2.22439E-03
 -1        87 8.60165E-03 1.04995E-07-1.08413E-07
 -1        88 8.68889E-03-6.15176E-07-1.11148E-06
 -1        89 1.19609E-02 9.52387E-05-2.22035E-03
 -1        90 1.70974E-02 1.24297E-07-9.62143E-04
 -1        91 1.61044E-02 2.35400E-06-8.01352E-05
 -1        92 1.73301E-02 4.40030E-05-9.48653E-04
 -1        93 1.82577E-02 3.75098E-05-1.69325E-03
 -1        94 1.63721E-02 6.86067E-06-7.69393E-05
 -1        95 1.86406E-02 1.43710E-04-1.64165E-03
 -1        96 8.77533E-03 2.39462E-07-2.19083E-06
 -1        97 1.21217E-02 1.93519E-04-2.21054E-03
 -1        98 1.62824E-02 5.83237E-06-7.82225E-05
 -1        99 1.75540E-02 8.18163E-05-9.33857E-04
 -1       100 1.85171E-02 1.09360E-04-1.65875E-03
 -1       101 2.72177E-02 2.49023E-07-1.44241E-03
 -1       102 2.67837E-02 5.95774E-08-7.99415E-05
 -1       103 2.68087E-02 4.26944E-06-7.53361E-05
 -1       104 2.72790E-02 6.37341E-05-1.45226E-03
 -1       105 2.25987E-02 7.09442E-08-1.51772E-03
 -1       106 2.20381E-02 1.51413E-07 1.89247E-06
 -1       107 2.20884E-02-5.05331E-07 1.07890E-06
 -1       108 2.26746E-02 6.61815E-05-1.51726E-03
 -1       109 2.69850E-02 1.60440E-07-7.12074E-04
 -1       110 2.67962E-02 2.17831E-06-7.80335E-05
 -1       111 2.70255E-02 3.09283E-05-7.08632E-04
 -1       112 2.72480E-02 3.18572E-05-1.44653E-03
 -1       113 2.68394E-02 6.31613E-06-7.02438E-05
 -1       114 2.73260E-02 1.27749E-04-1.45839E-03
 -1       115 2.21356E-02 9.29980E-08 3.99119E-08
 -1       116 2.27575E-02 1.32529E-04-1.51361E-03
 -1       117 2.68241E-02 5.23121E-06-7.23041E-05
 -1       118 2.70610E-02 6.17753E-05-7.04284E-04
 -1       119 2.73021E-02 9.56710E-05-1.45703E-03
 -1       120 1.44366E-02 7.65831E-08 2.06908E-03
 -1       121 1.44297E-02-8.58094E-05 2.06782E-03
 -1       122 5.22720E-03 6.07259E-08 1.95269E-03
 -1       123 5.22694E-03-8.55465E-05 1.95278E-03
 -1       124 1.52747E-02 4.81091E-08 9.30903E-04
 -1       125 1.44333E-02-4.28250E-05 2.06916E-03
 -1       126 1.53689E-02-3.77755E-05 9.27716E-04
 -1       127 1.44216E-02-1.80312E-04 2.06193E-03
 -1       128 5.22686E-03-1.70511E-04 1.94944E-03
 -1       129 1.44255E-02-1.33061E-04 2.06545E-03
 -1       130 1.54641E-02-8.06150E-05 9.22609E-04
 -1       131 2.70305E-02 1.42353E-07 1.39630E-03
 -1       132 2.70180E-02-5.45537E-05 1.39845E-03
 -1       133 2.11561E-02 1.07755E-07 1.47102E-03
 -1       134 2.11630E-02-6.79037E-05 1.46834E-03
 -1       135 2.68827E-02 9.92739E-08 6.67680E-04
 -1       136 2.70239E-02-2.73876E-05 1.39718E-03
 -1       137 2.68871E-02-2.52790E-05 6.73247E-04
 -1       138 2.70039E-02-1.22109E-04 1.39718E-03
 -1       139 2.11708E-02-1.27906E-04 1.46326E-03
 -1       140 2.70112E-02-8.85414E-05 1.39835E-03
 -1       141 2.68933E-02-5.91249E-05 6.77527E-04
 -1       142 0.00000E+00 0.00000E+00 0.00000E+00
 -1       143 0.00000E+00 0.00000E+00 0.00000E+00
 -1       144 1.90109E-03 3.14276E-04-2.40184E-03
 -1       145 2.97242E-03 6.68187E-04-5.09036E-03
 -1       146 0.00000E+00 0.00000E+00 0.00000E+00
 -1       147 0.00000E+00 0.00000E+00 0.00000E+00
 -1       148 0.00000E+00 0.00000E+00 0.00000E+00
 -1       149 2.30618E-04 1.29986E-04-9.94958E-04
 -1       150 1.74321E-03 3.47223E-04-2.64563E-03
 -1       151 1.90059E-03 2.62821E-04-2.40817E-03
 -1       152 2.16702E-03 4.95765E-04-3.75563E-03
 -1       153 2.97320E-03 5.58058E-04-5.10367E-03
 -1       154 0.00000E+00 0.00000E+00 0.00000E+00
 -1       155 0.00000E+00 0.00000E+00 0.00000E+00
 -1       156 1.90209E-03 4.20381E-04-2.38497E-03
 -1       157 2.97135E-03 8.91133E-04-5.05507E-03
 -1       158 0.00000E+00 0.00000E+00 0.00000E+00
 -1       159 0.00000E+00 0.00000E+00 0.00000E+00
 -1       160 0.00000E+00 0.00000E+00 0.00000E+00
 -1       161 2.30491E-04 1.74114E-04-9.87588E-04
 -1       162 1.74291E-03 4.63395E-04-2.62788E-03
 -1       163 1.90162E-03 3.67423E-04-2.39397E-03
 -1       164 2.16731E-03 6.57766E-04-3.73055E-03
 -1       165 2.97179E-03 7.79895E-04-5.07405E-03
 -1       166 7.21854E-03 8.15122E-04-6.20417E-03
 -1       167 8.47936E-03 1.34630E-03-1.02391E-02
 -1       168 3.66241E-03 5.04794E-04-3.85619E-03
 -1       169 5.22697E-03 1.01203E-03-7.69933E-03
 -1       170 7.21762E-03 6.80627E-04-6.22087E-03
 -1       171 7.82982E-03 1.08908E-03-8.26314E-03
 -1       172 8.48019E-03 1.12337E-03-1.02654E-02
 -1       173 7.21782E-03 1.08625E-03-6.15998E-03
 -1       174 8.47828E-03 1.79319E-03-1.01684E-02
 -1       175 3.66208E-03 6.75717E-04-3.83050E-03
 -1       176 5.22611E-03 1.34878E-03-7.64754E-03
 -1       177 7.21866E-03 9.50908E-04-6.18311E-03
 -1       178 7.82994E-03 1.44665E-03-8.20586E-03
 -1       179 8.47841E-03 1.56995E-03-1.02056E-02
 -1       180 0.00000E+00 0.00000E+00 0.00000E+00
 -1       181 1.47367E-03-6.73876E-06 3.24475E-05
 -1       182 0.00000E+00 0.00000E+00 0.00000E+00
 -1       183 0.00000E+00 0.00000E+00 0.00000E+00
 -1       184 4.58068E-04-3.79185E-05 2.78427E-04
 -1       185 1.47327E-03-4.77883E-06 3.31732E-05
 -1       186 1.55333E-03 1.30068E-04-9.78831E-04
 -1       187 0.00000E+00 0.00000E+00 0.00000E+00
 -1       188 1.47623E-03-5.77937E-06 3.24846E-05
 -1       189 0.00000E+00 0.00000E+00 0.00000E+00
 -1       190 0.00000E+00 0.00000E+00 0.00000E+00
 -1       191 4.62381E-04-4.84419E-05 2.74538E-04
 -1       192 1.47493E-03-6.24605E-06 3.25610E-05
 -1       193 1.55193E-03 1.71441E-04-9.72024E-04
 -1       194 5.70985E-03 2.34825E-04-1.83479E-03
 -1       195 3.54166E-03 9.85795E-05-7.66456E-04
 -1       196 5.70276E-03 1.98294E-04-1.84092E-03
 -1       197 6.31288E-03 5.36482E-04-4.06059E-03
 -1       198 5.71695E-03 3.20894E-04-1.81856E-03
 -1       199 3.54781E-03 1.34225E-04-7.60452E-04
 -1       200 5.71265E-03 2.77882E-04-1.82697E-03
 -1       201 6.31608E-03 7.10577E-04-4.03095E-03
 -1       202 1.61928E-02 9.38372E-06-7.88613E-05
 -1       203 1.83923E-02 2.17754E-04-1.66356E-03
 -1       204 8.68892E-03 8.91681E-07-8.84162E-07
 -1       205 1.19609E-02 2.92033E-04-2.20318E-03
 -1       206 1.62823E-02 8.08567E-06-7.80187E-05
 -1       207 1.73301E-02 1.21553E-04-9.41901E-04
 -1       208 1.85171E-02 1.80473E-04-1.65275E-03
 -1       209 1.60158E-02 1.40655E-05-7.96885E-05
 -1       210 1.81216E-02 2.97151E-04-1.68371E-03
 -1       211 8.60168E-03 1.22259E-07-8.87233E-08
 -1       212 1.18058E-02 3.86208E-04-2.19061E-03
 -1       213 1.61044E-02 1.17150E-05-7.92607E-05
 -1       214 1.70974E-02 1.67197E-04-9.47503E-04
 -1       215 1.82578E-02 2.57456E-04-1.67447E-03
 -1       216 2.68086E-02 9.18345E-06-7.48114E-05
 -1       217 2.72791E-02 1.89589E-04-1.44147E-03
 -1       218 2.20884E-02 5.16466E-07 1.14681E-06
 -1       219 2.26746E-02 1.98570E-04-1.50557E-03
 -1       220 2.68241E-02 7.72607E-06-7.20653E-05
 -1       221 2.70255E-02 9.28306E-05-7.03269E-04
 -1       222 2.73022E-02 1.59026E-04-1.45146E-03
 -1       223 2.67837E-02 1.39404E-05-7.87169E-05
 -1       224 2.72177E-02 2.50718E-04-1.42046E-03
 -1       225 2.20381E-02-1.79513E-07 1.89002E-06
 -1       226 2.25987E-02 2.63620E-04-1.49465E-03
 -1       227 2.67962E-02 1.16274E-05-7.72022E-05
 -1       228 2.69850E-02 1.23808E-04-7.01228E-04
 -1       229 2.72480E-02 2.20100E-04-1.42990E-03
 -1       230 1.44296E-02-2.74411E-04 2.05136E-03
 -1       231 5.22696E-03-2.54743E-04 1.93794E-03
 -1       232 1.44255E-02-2.27463E-04 2.05722E-03
 -1       233 1.53689E-02-1.23698E-04 9.20190E-04
 -1       234 1.44366E-02-3.59216E-04 2.03766E-03
 -1       235 5.22722E-03-3.39022E-04 1.92303E-03
 -1       236 1.44333E-02-3.16978E-04 2.04521E-03
 -1       237 1.52747E-02-1.61602E-04 9.16768E-04
 -1       238 2.70180E-02-1.88848E-04 1.38672E-03
 -1       239 2.11630E-02-1.87884E-04 1.45785E-03
 -1       240 2.70112E-02-1.55365E-04 1.39251E-03
 -1       241 2.68871E-02-9.17257E-05 6.67483E-04
 -1       242 2.70305E-02-2.42325E-04 1.37511E-03
 -1       243 2.11561E-02-2.55333E-04 1.44869E-03
 -1       244 2.70239E-02-2.15373E-04 1.38075E-03
 -1       245 2.68827E-02-1.15844E-04 6.57554E-04
 -1       246 4.37894E-03 1.43271E-07 2.10672E-02
 -1       247 2.51269E-03 2.59339E-07 2.40116E-02
 -1       248 2.51524E-03-1.04594E-03 2.39871E-02
 -1       249 4.37695E-03-9.19152E-04 2.10466E-02
 -1       250 1.81856E-02 7.13130E-08 1.52519E-02
 -1       251 1.76066E-02 3.97646E-07 1.66348E-02
 -1       252 1.76775E-02-7.21460E-04 1.65967E-02
 -1       253 1.81839E-02-6.64417E-04 1.52370E-02
 -1       254 3.46087E-03 1.77010E-07 2.24780E-02
 -1       255 2.51403E-03-5.22969E-04 2.40041E-02
 -1       256 3.46077E-03-9.80029E-04 2.24556E-02
 -1       257 4.37798E-03-4.59666E-04 2.10619E-02
 -1       258 1.20319E-02 1.48781E-07 1.73102E-02
 -1       259 1.10578E-02-8.41708E-08 1.93653E-02
 -1       260 1.10996E-02-8.44920E-04 1.93278E-02
 -1       261 1.20331E-02-7.54665E-04 1.72944E-02
 -1       262 1.78925E-02 2.50109E-07 1.59462E-02
 -1       263 1.76420E-02-3.60867E-04 1.66198E-02
 -1       264 1.79261E-02-6.93186E-04 1.59208E-02
 -1       265 1.81845E-02-3.32158E-04 1.52480E-02
 -1       266 2.51412E-03-2.09252E-03 2.39167E-02
 -1       267 4.37588E-03-1.83593E-03 2.09861E-02
 -1       268 1.77458E-02-1.44594E-03 1.65271E-02
 -1       269 1.81829E-02-1.32910E-03 1.51935E-02
 -1       270 2.51454E-03-1.56969E-03 2.39570E-02
 -1       271 3.45956E-03-1.95883E-03 2.23905E-02
 -1       272 4.37644E-03-1.37788E-03 2.10212E-02
 -1       273 1.11434E-02-1.68428E-03 1.92533E-02
 -1       274 1.20338E-02-1.50872E-03 1.72457E-02
 -1       275 1.77121E-02-1.08403E-03 1.65659E-02
 -1       276 1.79584E-02-1.38795E-03 1.58652E-02
 -1       277 1.81835E-02-9.96931E-04 1.52187E-02
 -1       278 2.95257E-02 1.45575E-07 1.32431E-02
 -1       279 2.96053E-02 3.92314E-07 1.43433E-02
 -1       280 2.96010E-02-6.22196E-04 1.43298E-02
 -1       281 2.95218E-02-5.77747E-04 1.32332E-02
 -1       282 2.39656E-02 1.75791E-07 1.39044E-02
 -1       283 2.38001E-02 5.84526E-08 1.52498E-02
 -1       284 2.38369E-02-6.66400E-04 1.52287E-02
 -1       285 2.39672E-02-6.06467E-04 1.38908E-02
 -1       286 2.95666E-02 2.61678E-07 1.37930E-02
 -1       287 2.96032E-02-3.10923E-04 1.43398E-02
 -1       288 2.95626E-02-5.99873E-04 1.37810E-02
 -1       289 2.95239E-02-2.88944E-04 1.32410E-02
 -1       290 2.95943E-02-1.24991E-03 1.42873E-02
 -1       291 2.95186E-02-1.15455E-03 1.31990E-02
 -1       292 2.38750E-02-1.32780E-03 1.51794E-02
 -1       293 2.39685E-02-1.21160E-03 1.38504E-02
 -1       294 2.95974E-02-9.36288E-04 1.43119E-02
 -1       295 2.95578E-02-1.20217E-03 1.37425E-02
 -1       296 2.95201E-02-8.66435E-04 1.32195E-02
 -1       297 2.98678E-04-6.13426E-07 2.81476E-02
 -1       298 3.01872E-04-1.22778E-03 2.81211E-02
 -1       299 1.69771E-02-1.24910E-07 1.83306E-02
 -1       300 1.71157E-02-8.03659E-04 1.82726E-02
 -1       301 1.44386E-03 2.99621E-07 2.59839E-02
 -1       302 3.00319E-04-6.14390E-04 2.81431E-02
 -1       303 1.44587E-03-1.13310E-03 2.59585E-02
 -1       304 1.00951E-02 1.93368E-07 2.13916E-02
 -1       305 1.01906E-02-9.30126E-04 2.13161E-02
 -1       306 1.72847E-02 2.25570E-08 1.74911E-02
 -1       307 1.70461E-02-4.02805E-04 1.83048E-02
 -1       308 1.73885E-02-7.62542E-04 1.74442E-02
 -1       309 3.19139E-04-2.45237E-03 2.80347E-02
 -1       310 1.72754E-02-1.59007E-03 1.81792E-02
 -1       311 3.10704E-04-1.84058E-03 2.80849E-02
 -1       312 1.45250E-03-2.26422E-03 2.58814E-02
 -1       313 1.02778E-02-1.85508E-03 2.12026E-02
 -1       314 1.71947E-02-1.19786E-03 1.82296E-02
 -1       315 1.75014E-02-1.51893E-03 1.73638E-02
 -1       316 2.96575E-02-1.63681E-07 1.55954E-02
 -1       317 2.96387E-02-6.88023E-04 1.55788E-02
 -1       318 2.36623E-02 3.19975E-07 1.65135E-02
 -1       319 2.37454E-02-7.15112E-04 1.64805E-02
 -1       320 2.96316E-02 1.68069E-07 1.49672E-02
 -1       321 2.96483E-02-3.43835E-04 1.55916E-02
 -1       322 2.96200E-02-6.55251E-04 1.49525E-02
 -1       323 2.96373E-02-1.35872E-03 1.55358E-02
 -1       324 2.38199E-02-1.43620E-03 1.64159E-02
 -1       325 2.96383E-02-1.02333E-03 1.55609E-02
 -1       326 2.96159E-02-1.30412E-03 1.49094E-02
 -1       327 1.22559E-19 1.86894E-23-4.02646E-19
 -1       328-1.25279E-03 2.98976E-08 6.44885E-04
 -1       329-1.25215E-03-2.85613E-05 6.44108E-04
 -1       330 0.00000E+00 0.00000E+00 0.00000E+00
 -1       331 4.01023E-20 6.58789E-25-3.35477E-19
 -1       332-3.12284E-04 5.92471E-08-6.51197E-05
 -1       333-3.11218E-04 3.39621E-06-6.60932E-05
 -1       334 0.00000E+00 0.00000E+00 0.00000E+00
 -1       335 2.38761E-04 9.16437E-08-1.65214E-03
 -1       336-1.25248E-03-1.42425E-05 6.43572E-04
 -1       337 2.38610E-04 7.22901E-05-1.65052E-03
 -1       338 0.00000E+00 0.00000E+00 0.00000E+00
 -1       339 8.22514E-20 5.70967E-24-3.69252E-19
 -1       340-7.65954E-04-2.74830E-08 2.86449E-04
 -1       341-7.64878E-04-1.23342E-05 2.85542E-04
 -1       342 0.00000E+00 0.00000E+00 0.00000E+00
 -1       343 1.02534E-04 1.77787E-08-1.52714E-03
 -1       344-3.11768E-04 1.74324E-06-6.58761E-05
 -1       345 1.02151E-04 6.65010E-05-1.52543E-03
 -1       346 0.00000E+00 0.00000E+00 0.00000E+00
 -1       347-1.24507E-03-5.58565E-05 6.39937E-04
 -1       348 0.00000E+00 0.00000E+00 0.00000E+00
 -1       349-3.11836E-04 5.89031E-06-6.66171E-05
 -1       350 0.00000E+00 0.00000E+00 0.00000E+00
 -1       351-1.24866E-03-4.21640E-05 6.41430E-04
 -1       352 2.36789E-04 1.43942E-04-1.64523E-03
 -1       353 0.00000E+00 0.00000E+00 0.00000E+00
 -1       354-7.61298E-04-2.46460E-05 2.82985E-04
 -1       355 0.00000E+00 0.00000E+00 0.00000E+00
 -1       356-3.11492E-04 4.69816E-06-6.66968E-05
 -1       357 1.02142E-04 1.33098E-04-1.52072E-03
 -1       358 0.00000E+00 0.00000E+00 0.00000E+00
 -1       359-4.80394E-20 1.97700E-25-2.95387E-19
 -1       360 4.82862E-04 1.17362E-07-4.09789E-04
 -1       361 4.81891E-04 1.76974E-05-4.09831E-04
 -1       362 0.00000E+00 0.00000E+00 0.00000E+00
 -1       363-2.78771E-21 7.51127E-25-3.15820E-19
 -1       364 1.06592E-04 9.37920E-08-2.44452E-04
 -1       365 1.06727E-04 1.08900E-05-2.44973E-04
 -1       366 0.00000E+00 0.00000E+00 0.00000E+00
 -1       367-9.56345E-05 3.02309E-08-1.43275E-03
 -1       368 4.82370E-04 8.93043E-06-4.10290E-04
 -1       369-9.54815E-05 6.25672E-05-1.43121E-03
 -1       370 0.00000E+00 0.00000E+00 0.00000E+00
 -1       371 4.81454E-04 3.58386E-05-4.09073E-04
 -1       372 0.00000E+00 0.00000E+00 0.00000E+00
 -1       373 1.06218E-04 2.14696E-05-2.44885E-04
 -1       374 0.00000E+00 0.00000E+00 0.00000E+00
 -1       375 4.81667E-04 2.68027E-05-4.09918E-04
 -1       376-9.53896E-05 1.24884E-04-1.42700E-03
 -1       377 0.00000E+00 0.00000E+00 0.00000E+00
 -1       378-1.01699E-03-4.24324E-08 1.09727E-02
 -1       379-1.01753E-03-4.78260E-04 1.09627E-02
 -1       380 6.18620E-04 9.54095E-08 9.55489E-03
 -1       381 6.17924E-04-4.17035E-04 9.54662E-03
 -1       382-1.02282E-03-9.56516E-04 1.09331E-02
 -1       383 6.18558E-04-8.32815E-04 9.51968E-03
 -1       384 2.05704E-03 2.95717E-08 8.19577E-03
 -1       385 2.05788E-03-3.57190E-04 8.18821E-03
 -1       386 2.05823E-03-7.14252E-04 8.16513E-03
 -1       387 2.51529E-03-3.13493E-03 2.38035E-02
 -1       388 4.37692E-03-2.74918E-03 2.08867E-02
 -1       389 1.76776E-02-2.17142E-03 1.64698E-02
 -1       390 1.81841E-02-1.99117E-03 1.51210E-02
 -1       391 2.51455E-03-2.61419E-03 2.38654E-02
 -1       392 3.46074E-03-2.93397E-03 2.22844E-02
 -1       393 4.37642E-03-2.29307E-03 2.09411E-02
 -1       394 1.10996E-02-2.52382E-03 1.91810E-02
 -1       395 1.20330E-02-2.25978E-03 1.71628E-02
 -1       396 1.77122E-02-1.80903E-03 1.65023E-02
 -1       397 1.79262E-02-2.08172E-03 1.57992E-02
 -1       398 1.81836E-02-1.66055E-03 1.51607E-02
 -1       399 2.51266E-03-4.16934E-03 2.36469E-02
 -1       400 4.37890E-03-3.65813E-03 2.07472E-02
 -1       401 1.76066E-02-2.88821E-03 1.63821E-02
 -1       402 1.81856E-02-2.64840E-03 1.50203E-02
 -1       403 2.51408E-03-3.65291E-03 2.37304E-02
 -1       404 3.46083E-03-3.90310E-03 2.21366E-02
 -1       405 4.37789E-03-3.20430E-03 2.08217E-02
 -1       406 1.10578E-02-3.36284E-03 1.90711E-02
 -1       407 1.20318E-02-3.00574E-03 1.70473E-02
 -1       408 1.76420E-02-2.53017E-03 1.64299E-02
 -1       409 1.78925E-02-2.76878E-03 1.57040E-02
 -1       410 1.81846E-02-2.32044E-03 1.50742E-02
 -1       411 2.96011E-02-1.87533E-03 1.42199E-02
 -1       412 2.95220E-02-1.72848E-03 1.31325E-02
 -1       413 2.38369E-02-1.98780E-03 1.51133E-02
 -1       414 2.39672E-02-1.81459E-03 1.37851E-02
 -1       415 2.95975E-02-1.56297E-03 1.42570E-02
 -1       416 2.95627E-02-1.80192E-03 1.36757E-02
 -1       417 2.95202E-02-1.44182E-03 1.31691E-02
 -1       418 2.96053E-02-2.49030E-03 1.41254E-02
 -1       419 2.95257E-02-2.29949E-03 1.30419E-02
 -1       420 2.38001E-02-2.64804E-03 1.50181E-02
 -1       421 2.39656E-02-2.41429E-03 1.36932E-02
 -1       422 2.96033E-02-2.18337E-03 1.41759E-02
 -1       423 2.95666E-02-2.39487E-03 1.35835E-02
 -1       424 2.95240E-02-2.01434E-03 1.30901E-02
 -1       425 3.02214E-04-3.67342E-03 2.79069E-02
 -1       426 1.71160E-02-2.38129E-03 1.81340E-02
 -1       427 3.10927E-04-3.06350E-03 2.79770E-02
 -1       428 1.44601E-03-3.39172E-03 2.57603E-02
 -1       429 1.01904E-02-2.78536E-03 2.11544E-02
 -1       430 1.71949E-02-1.98538E-03 1.81607E-02
 -1       431 1.73887E-02-2.27793E-03 1.73113E-02
 -1       432 2.98667E-04-4.88842E-03 2.77198E-02
 -1       433 1.69771E-02-3.18321E-03 1.80521E-02
 -1       434 3.00398E-04-4.28184E-03 2.78192E-02
 -1       435 1.44383E-03-4.51180E-03 2.55892E-02
 -1       436 1.00951E-02-3.71444E-03 2.10666E-02
 -1       437 1.70463E-02-2.78205E-03 1.80973E-02
 -1       438 1.72847E-02-3.03727E-03 1.72253E-02
 -1       439 2.96388E-02-2.02727E-03 1.54619E-02
 -1       440 2.37453E-02-2.15726E-03 1.63542E-02
 -1       441 2.96383E-02-1.69365E-03 1.55022E-02
 -1       442 2.96201E-02-1.95090E-03 1.48392E-02
 -1       443 2.96575E-02-2.70828E-03 1.53585E-02
 -1       444 2.36623E-02-2.86722E-03 1.62626E-02
 -1       445 2.96484E-02-2.36872E-03 1.54141E-02
 -1       446 2.96316E-02-2.59886E-03 1.47399E-02
 -1       447-1.25200E-03-8.35245E-05 6.38874E-04
 -1       448 0.00000E+00 0.00000E+00 0.00000E+00
 -1       449-3.11189E-04 8.24237E-06-6.56673E-05
 -1       450 0.00000E+00 0.00000E+00 0.00000E+00
 -1       451-1.24860E-03-6.96669E-05 6.39048E-04
 -1       452 2.38566E-04 2.15452E-04-1.63801E-03
 -1       453 0.00000E+00 0.00000E+00 0.00000E+00
 -1       454-7.64787E-04-3.72307E-05 2.83183E-04
 -1       455 0.00000E+00 0.00000E+00 0.00000E+00
 -1       456-3.11473E-04 7.07885E-06-6.65461E-05
 -1       457 1.02138E-04 1.99458E-04-1.51370E-03
 -1       458 0.00000E+00 0.00000E+00 0.00000E+00
 -1       459-1.25279E-03-1.11955E-04 6.35094E-04
 -1       460 0.00000E+00 0.00000E+00 0.00000E+00
 -1       461-3.12297E-04 1.13666E-05-6.41219E-05
 -1       462 0.00000E+00 0.00000E+00 0.00000E+00
 -1       463-1.25239E-03-9.76823E-05 6.36650E-04
 -1       464 2.38762E-04 2.86983E-04-1.62702E-03
 -1       465 0.00000E+00 0.00000E+00 0.00000E+00
 -1       466-7.65964E-04-4.97692E-05 2.82095E-04
 -1       467 0.00000E+00 0.00000E+00 0.00000E+00
 -1       468-3.11770E-04 9.85089E-06-6.52631E-05
 -1       469 1.02536E-04 2.65203E-04-1.50394E-03
 -1       470 0.00000E+00 0.00000E+00 0.00000E+00
 -1       471 4.81856E-04 5.38619E-05-4.06666E-04
 -1       472 0.00000E+00 0.00000E+00 0.00000E+00
 -1       473 1.06735E-04 3.19404E-05-2.43155E-04
 -1       474 0.00000E+00 0.00000E+00 0.00000E+00
 -1       475 4.81649E-04 4.49000E-05-4.08302E-04
 -1       476-9.54832E-05 1.86973E-04-1.42034E-03
 -1       477 0.00000E+00 0.00000E+00 0.00000E+00
 -1       478 4.82862E-04 7.12746E-05-4.03543E-04
 -1       479 0.00000E+00 0.00000E+00 0.00000E+00
 -1       480 1.06575E-04 4.25416E-05-2.40725E-04
 -1       481 0.00000E+00 0.00000E+00 0.00000E+00
 -1       482 4.82363E-04 6.26174E-05-4.05548E-04
 -1       483-9.56345E-05 2.48824E-04-1.41098E-03
 -1       484 0.00000E+00 0.00000E+00 0.00000E+00
 -1       485-1.01761E-03-1.43248E-03 1.08796E-02
 -1       486 6.17886E-04-1.24684E-03 9.47390E-03
 -1       487-1.01699E-03-1.90545E-03 1.08060E-02
 -1       488 6.18595E-04-1.65910E-03 9.40975E-03
 -1       489 2.05790E-03-1.06990E-03 8.12589E-03
 -1       490 2.05704E-03-1.42315E-03 8.07126E-03
 -3
    1PSTEP                         5           1           2          
  100CL  102 2.000000000         490                     0    2           1
 -4  STRESS      6    1
 -5  SXX         1    4    1    1
 -5  SYY         1    4    2    2
 -5  SZZ         1    4    3    3
 -5  SXY         1    4    1    2
 -5  SYZ         1    4    2    3
 -5  SZX         1    4    3    1
 -1         1-1.08882E+03-1.31344E+03-3.05128E+03 3.68593E-01-7.14741E-01 6.08751E+02
 -1         2-2.87424E+02-3.34069E+02-8.32216E+02-7.65249E-01 5.95594E-01-1.78268E+02
 -1         3-2.87173E+02-3.35193E+02-8.31859E+02 6.97972E+00 2.22339E+01-1.77868E+02
 -1         4-1.08873E+03-1.31624E+03-3.04700E+03-2.64908E+01 7.55986E+01 6.08239E+02
 -1         5 2.58184E+02-1.41713E+03-2.46893E+03-2.80452E-01-1.52687E-01-1.76074E+02
 -1         6-2.55473E+02-6.85315E+02-9.70467E+02-7.00435E-01-9.65574E-01-1.48314E+02
 -1         7-2.58072E+02-6.86523E+02-9.69528E+02 6.33214E+00 1.24767E+01-1.47708E+02
 -1         8 2.59769E+02-1.41942E+03-2.46552E+03 8.97146E+00 4.56692E+01-1.76090E+02
 -1         9-5.54112E+02-7.69958E+02-1.89507E+03-1.43626E-01-7.11260E-02 1.93828E+02
 -1        10-2.87281E+02-3.34587E+02-8.32024E+02 3.13103E+00 1.13197E+01-1.78066E+02
 -1        11-5.54484E+02-7.72165E+02-1.89300E+03-8.70817E+00 4.92010E+01 1.93840E+02
 -1        12-1.08886E+03-1.31503E+03-3.04924E+03-1.30178E+01 3.72232E+01 6.08491E+02
 -1        13-3.32516E+02-1.31535E+03-2.65462E+03-9.50359E-02-9.60680E-02 1.44005E+02
 -1        14-2.61386E+02-5.46974E+02-1.01817E+03-7.08511E-01 5.01651E-02-5.77882E+01
 -1        15-2.62802E+02-5.49044E+02-1.01813E+03 2.05712E+00 2.11036E+01-5.76854E+01
 -1        16-3.32088E+02-1.31805E+03-2.65229E+03-5.65403E+00 5.82771E+01 1.44030E+02
 -1        17-2.50238E+01-1.07369E+03-1.75103E+03 2.75901E-01-7.32954E-01-1.51861E+02
 -1        18-2.56869E+02-6.86133E+02-9.70073E+02 2.77675E+00 6.12675E+00-1.48002E+02
 -1        19-2.35905E+01-1.07453E+03-1.74792E+03 6.42634E+00 2.96877E+01-1.51761E+02
 -1        20 2.59051E+02-1.41797E+03-2.46720E+03 4.36968E+00 2.23027E+01-1.76080E+02
 -1        21-2.86843E+02-3.38095E+02-8.29738E+02 1.54999E+01 4.33625E+01-1.77086E+02
 -1        22-1.08921E+03-1.32624E+03-3.03737E+03-5.31442E+01 1.50855E+02 6.06557E+02
 -1        23-2.60100E+02-6.88328E+02-9.67343E+02 1.28682E+01 2.47404E+01-1.46670E+02
 -1        24 2.61767E+02-1.42587E+03-2.46034E+03 1.54493E+01 9.10115E+01-1.76817E+02
 -1        25-2.87018E+02-3.36707E+02-8.30767E+02 1.07794E+01 3.30709E+01-1.77518E+02
 -1        26-5.55075E+02-7.78860E+02-1.88724E+03-1.69590E+01 9.77233E+01 1.93457E+02
 -1        27-1.08884E+03-1.32096E+03-3.04203E+03-3.97394E+01 1.13576E+02 6.07413E+02
 -1        28-2.63997E+02-5.52502E+02-1.01621E+03 5.02432E+00 4.10283E+01-5.73797E+01
 -1        29-3.30726E+02-1.32508E+03-2.64373E+03-1.25278E+01 1.16028E+02 1.43319E+02
 -1        30-2.58986E+02-6.87229E+02-9.68330E+02 9.38743E+00 1.84825E+01-1.47227E+02
 -1        31-2.26151E+01-1.07823E+03-1.74397E+03 1.32460E+01 5.86482E+01-1.51484E+02
 -1        32 2.60684E+02-1.42296E+03-2.46297E+03 1.20330E+01 6.85922E+01-1.76479E+02
 -1        33-6.34094E+01-1.94672E+03-2.74268E+03 7.95459E-01 1.89608E+00-7.06691E+01
 -1        34 3.12890E+02-1.08037E+03-1.77928E+03-2.30512E+00 5.84033E+00 4.19559E-01
 -1        35 3.11619E+02-1.08533E+03-1.78378E+03 1.78467E+00 2.84624E+01 5.58596E-01
 -1        36-6.00282E+01-1.94722E+03-2.74610E+03 4.67400E+00 3.36909E+01-7.22863E+01
 -1        37 1.45864E+01-1.73186E+03-2.71129E+03 3.96609E-01 5.34053E-01-5.10378E+01
 -1        38 1.86459E+01-8.45561E+02-1.25805E+03-1.52711E+00 2.20222E+00-1.79450E+02
 -1        39 1.69533E+01-8.47741E+02-1.25922E+03 8.65722E+00 1.67213E+01-1.78678E+02
 -1        40 1.74780E+01-1.73310E+03-2.70978E+03 3.71708E+00 4.20368E+01-5.21434E+01
 -1        41 1.22278E+02-1.50261E+03-2.21832E+03-7.87566E-01 3.66153E+00-6.25829E+01
 -1        42 3.12414E+02-1.08239E+03-1.78157E+03 1.17589E-01 1.53398E+01 4.97972E-01
 -1        43 1.21199E+02-1.50483E+03-2.22274E+03 2.45560E+00 3.05201E+01-6.29268E+01
 -1        44-6.16297E+01-1.94648E+03-2.74401E+03 2.59821E+00 2.00326E+01-7.15002E+01
 -1        45 3.05561E+02-1.09547E+03-1.78596E+03-1.21914E-01 5.98852E+01 6.81231E-01
 -1        46-5.79068E+01-1.95096E+03-2.73474E+03 6.24562E+00 7.00852E+01-7.01968E+01
 -1        47 1.32560E+01-8.52612E+02-1.25898E+03 1.55329E+01 3.53360E+01-1.77492E+02
 -1        48 1.89339E+01-1.73939E+03-2.70267E+03 4.52779E+00 8.54534E+01-5.19560E+01
 -1        49 3.08392E+02-1.09080E+03-1.78503E+03-9.55206E-01 4.53160E+01 5.25848E-01
 -1        50 1.22724E+02-1.50856E+03-2.21637E+03 5.53957E+00 6.25064E+01-6.25485E+01
 -1        51-5.90219E+01-1.94968E+03-2.74060E+03 5.87833E+00 5.04681E+01-7.11193E+01
 -1        52 9.14731E+01 3.30846E+02 6.73074E+02-8.05805E-01-8.94814E-01 4.56611E+01
 -1        53 9.59986E+01 3.31782E+02 6.75301E+02-1.94038E+00-1.64631E+01 4.40684E+01
 -1        54-2.84555E+02-1.10364E+02-1.66530E+02 1.03120E+00-7.97319E-01 2.09561E+02
 -1        55-2.79132E+02-1.09555E+02-1.65884E+02-9.67020E+00 3.07193E+00 2.08138E+02
 -1        56-2.03427E+02-8.58930E+01-1.50065E+02 1.39889E+00-9.28236E-01-2.89000E+01
 -1        57 9.42486E+01 3.32554E+02 6.74684E+02-1.39229E+00-8.95651E+00 4.48662E+01
 -1        58-2.01108E+02-8.43341E+01-1.47164E+02 2.78852E+00 1.80511E+00-2.99297E+01
 -1        59-7.03128E+01 1.41124E+02 3.18000E+02-1.14977E-01-1.01936E+00 8.17732E+01
 -1        60-6.55897E+01 1.42918E+02 3.19017E+02-3.72567E+00-8.07106E+00 8.07128E+01
 -1        61-3.32981E+02-4.11767E+02-5.92201E+02 2.66323E-01-1.48340E+00 5.95930E+01
 -1        62-2.81873E+02-1.09964E+02-1.66166E+02-4.33065E+00 1.68246E+00 2.08838E+02
 -1        63-3.31193E+02-4.12291E+02-5.91354E+02-2.17134E+00 7.40013E+00 5.90074E+01
 -1        64 9.88483E+01 3.33023E+02 6.75645E+02-3.67651E+00-3.01598E+01 4.20870E+01
 -1        65-2.74157E+02-1.09690E+02-1.65749E+02-1.80718E+01 5.15458E+00 2.06140E+02
 -1        66 9.69074E+01 3.31314E+02 6.74814E+02-3.12623E+00-2.39547E+01 4.30502E+01
 -1        67-1.98699E+02-8.32025E+01-1.44128E+02 2.72023E+00 5.40689E+00-3.10595E+01
 -1        68-6.15466E+01 1.44784E+02 3.19223E+02-6.97367E+00-1.52247E+01 7.96135E+01
 -1        69-2.76615E+02-1.09673E+02-1.65801E+02-1.33692E+01 3.95926E+00 2.07186E+02
 -1        70-3.30354E+02-4.14251E+02-5.90210E+02-5.07483E+00 1.57337E+01 5.80127E+01
 -1        71 3.83185E+02-2.06891E+00 3.05313E+02 2.00745E+00 4.79135E+00-3.73015E+02
 -1        72 3.86439E+02 3.58523E+00 3.07280E+02 1.32423E+01-1.17010E+01-3.73539E+02
 -1        73 2.30869E+01-8.70991E+01 4.66400E+00 1.74699E+00 2.17031E+00-3.58897E+01
 -1        74 2.76767E+01-8.47893E+01 6.38993E+00-2.93556E-01-2.93908E+00-3.73101E+01
 -1        75 4.31784E+02-4.41513E+02-5.05196E+02 3.98048E+00 6.70291E+00-3.05020E+02
 -1        76 3.84151E+02-6.68013E-01 3.05444E+02 7.20424E+00-5.48382E+00-3.73332E+02
 -1        77 4.38486E+02-4.40417E+02-5.05959E+02 1.61350E+01 4.59277E+00-3.05722E+02
 -1        78 4.01800E+02 1.50769E+01 3.12892E+02 3.26447E+01-2.73073E+01-3.72610E+02
 -1        79 3.77131E+01-8.04240E+01 9.29644E+00 3.38595E+00-8.35427E+00-3.87350E+01
 -1        80 3.94762E+02 1.08452E+01 3.10788E+02 2.41569E+01-1.82395E+01-3.72978E+02
 -1        81 4.52188E+02-4.37108E+02-5.03775E+02 2.67488E+01 4.70538E+00-3.06091E+02
 -1        82-4.57926E+01-8.51681E+01 1.21995E+02 1.28580E+00-1.52046E+00 1.75544E+01
 -1        83 3.33093E+01 3.83857E+00 7.55297E+00 2.56987E-01 2.33020E-01-3.66204E+00
 -1        84 3.03247E+01 2.70242E+00 6.86097E+00 1.15054E+00-7.51102E-02-5.20465E+00
 -1        85-4.31693E+01-8.30571E+01 1.20913E+02 6.39648E-02-9.91398E+00 1.62250E+01
 -1        86 5.36764E+01-1.58635E+02-3.16974E+01-5.92756E-01 2.26188E+00-2.53527E+01
 -1        87 4.87330E+01 1.04701E+01-1.46238E+01-2.72503E-01-7.14613E-01 4.99137E+01
 -1        88 4.62972E+01 9.10971E+00-1.58239E+01-2.60554E+00 9.96552E-01 5.12334E+01
 -1        89 5.26569E+01-1.55999E+02-2.73510E+01 6.12067E-01-5.73288E+00-2.47375E+01
 -1        90-2.23596E+01-4.70366E+01 5.98098E+01 5.47480E-01-5.06838E-01 7.01472E+00
 -1        91 3.18794E+01 3.42880E+00 7.24950E+00 6.40938E-01-2.30360E-02-4.44941E+00
 -1        92-2.25744E+01-4.60476E+01 5.92233E+01 7.71025E-01-4.90088E+00 5.08815E+00
 -1        93-4.44244E+01-8.39841E+01 1.21595E+02 6.25483E-01-5.33071E+00 1.68532E+01
 -1        94 2.78283E+01 2.38106E+00 6.47578E+00 6.23028E-01-4.10259E-01-7.05514E+00
 -1        95-4.60892E+01-8.15795E+01 1.16554E+02-1.26119E+00-1.72105E+01 1.44196E+01
 -1        96 4.30815E+01 7.39938E+00-1.71414E+01-4.60975E+00 2.21403E+00 5.26622E+01
 -1        97 5.18069E+01-1.52643E+02-2.37262E+01 2.14616E+00-1.16857E+01-2.44532E+01
 -1        98 2.90138E+01 2.40710E+00 6.60087E+00 7.55055E-01-2.81211E-01-6.12388E+00
 -1        99-2.46564E+01-4.46737E+01 5.74012E+01-2.43568E-01-8.89140E+00 2.83520E+00
 -1       100-4.46863E+01-8.24508E+01 1.18595E+02 1.57915E+00-1.39295E+01 1.55586E+01
 -1       101-9.83504E+00-5.92964E+01-6.39101E+00 1.19374E+00 3.56411E+00-4.34717E+00
 -1       102 6.06622E+01 1.63772E+01-8.37280E+00-1.10972E-01-1.73741E+00-1.69348E+01
 -1       103 6.13305E+01 1.75094E+01-5.52415E+00-4.24903E-01-1.65964E+00-1.13672E+01
 -1       104-1.13779E+01-6.15813E+01-5.30185E+00 1.95425E+00 4.84223E+00-3.46470E-01
 -1       105 5.92202E+00-6.78553E+01 2.86997E+01-6.17434E-01-7.84999E-01 4.06042E-01
 -1       106-3.80240E+01-1.72265E+01-1.02364E+01 1.22313E-01 4.56050E-01 3.43510E+00
 -1       107-3.78431E+01-1.66211E+01-8.97425E+00 4.36295E-01-6.06061E-01 3.01696E+00
 -1       108 6.84415E+00-6.79561E+01 2.47525E+01-7.97540E-01-3.26601E+00 3.14279E-01
 -1       109-3.74867E-01-3.19170E+01-1.81255E+01 3.11008E-01 5.46084E-01-3.02783E+00
 -1       110 6.10533E+01 1.69850E+01-6.92539E+00-1.39986E-01-1.68985E+00-1.40596E+01
 -1       111-9.49290E-01-3.27319E+01-1.62552E+01 1.11291E-01 1.24100E+00 2.49081E+00
 -1       112-1.02554E+01-5.96749E+01-5.48318E+00 1.46319E+00 4.19673E+00-2.17635E+00
 -1       113 5.91864E+01 1.66006E+01-3.08579E+00 4.16756E-01 1.75457E+00-4.82464E+00
 -1       114-5.18036E+00-5.98357E+01-2.77798E+00-9.72134E-02-5.12729E+00 1.19359E+00
 -1       115-3.60640E+01-1.51930E+01-7.00499E+00-2.08932E-01-7.28108E-01 2.40376E+00
 -1       116 3.00965E+00-6.90651E+01 1.85968E+01-9.87193E-02-7.67965E+00 1.08218E+00
 -1       117 6.02012E+01 1.71302E+01-4.44606E+00-9.41281E-03-6.33917E-01-8.18039E+00
 -1       118-1.04233E-01-3.30489E+01-1.42870E+01-6.26242E-01-1.69384E+00 7.16741E+00
 -1       119-8.63347E+00-6.17485E+01-4.13810E+00 1.56019E+00 1.41473E+00 2.89627E-01
 -1       120-1.18722E+00 1.03287E+02-1.56521E+02 7.10998E-01-1.95753E-01 2.16374E-01
 -1       121-9.42182E-01 1.04200E+02-1.56418E+02 1.10984E+00 1.13528E+01 2.16702E-01
 -1       122-8.57058E+01 2.18171E+02 2.39109E+02 2.60604E-01 2.27072E-01 4.37423E+01
 -1       123-8.73210E+01 2.17800E+02 2.37691E+02-1.50755E+00-6.21261E-01 4.16953E+01
 -1       124 3.21790E+01 5.99346E+01-6.95197E+01 7.07905E-01-1.18246E-01-1.79136E+00
 -1       125-1.29899E+00 1.03185E+02-1.56702E+02 9.51929E-01 5.69409E+00 2.13765E-01
 -1       126 3.08434E+01 5.93215E+01-7.01152E+01 9.66416E-01 5.54517E+00-2.07197E+00
 -1       127 3.33962E-02 1.04198E+02-1.55066E+02-3.04358E-02 2.28471E+01 3.15197E-01
 -1       128-8.85646E+01 2.17490E+02 2.36253E+02-3.43350E+00-1.63782E+00 3.92930E+01
 -1       129-2.19737E-01 1.04723E+02-1.55475E+02 9.63301E-01 1.71794E+01 3.06806E-01
 -1       130 2.94568E+01 5.83641E+01-7.01814E+01 2.20782E-01 1.12995E+01-2.52293E+00
 -1       131-9.46932E+01 2.63190E+01 2.54139E+01 2.11993E+00 7.03636E-02 3.46233E+01
 -1       132-9.91774E+01 2.49030E+01 2.57454E+01-6.05527E-01 2.37549E-01 3.29829E+01
 -1       133 5.43515E+01 9.41845E+01-2.25725E+01-1.13166E+00-4.48731E-02-1.93737E+01
 -1       134 5.68429E+01 9.38206E+01-2.11331E+01 2.82100E-02 4.65684E+00-1.85781E+01
 -1       135 8.77287E+00 3.18054E+01 1.92641E+01 1.23485E+00-4.66253E-01 1.23107E+00
 -1       136-9.72623E+01 2.46412E+01 2.51752E+01 7.08684E-01 4.19567E-02 3.37908E+01
 -1       137 7.00218E+00 3.19021E+01 2.09528E+01 1.38166E-01-3.60747E-01 2.46025E+00
 -1       138-1.02354E+02 2.41253E+01 2.64660E+01-2.71210E+00-2.02478E-01 3.10187E+01
 -1       139 5.85942E+01 9.26388E+01-1.94949E+01 1.53708E+00 9.88394E+00-1.75857E+01
 -1       140-1.00438E+02 2.55232E+01 2.64741E+01-6.09343E-01-8.01737E-02 3.21021E+01
 -1       141 5.52348E+00 3.17942E+01 2.30453E+01-3.61657E-01 7.83531E-01 4.11410E+00
 -1       142-2.87233E+02-3.42768E+02-8.24570E+02 2.40167E+01 6.40787E+01-1.76396E+02
 -1       143-1.08899E+03-1.34324E+03-3.02100E+03-7.95353E+01 2.24974E+02 6.03664E+02
 -1       144-2.58114E+02-6.91047E+02-9.64961E+02 1.94106E+01 3.69742E+01-1.46509E+02
 -1       145 2.59938E+02-1.43544E+03-2.44993E+03 2.18321E+01 1.36496E+02-1.75329E+02
 -1       146-2.87023E+02-3.40328E+02-8.27208E+02 2.02277E+01 5.34033E+01-1.76700E+02
 -1       147-5.54608E+02-7.89549E+02-1.87619E+03-2.50801E+01 1.45472E+02 1.92418E+02
 -1       148-1.08901E+03-1.33449E+03-3.02915E+03-6.64875E+01 1.87649E+02 6.05101E+02
 -1       149-2.62867E+02-5.56035E+02-1.01121E+03 7.99067E+00 6.06556E+01-5.70968E+01
 -1       150-3.31970E+02-1.33840E+03-2.63175E+03-1.94089E+01 1.73716E+02 1.42644E+02
 -1       151-2.59016E+02-6.89436E+02-9.66128E+02 1.63646E+01 3.05562E+01-1.46574E+02
 -1       152-2.35276E+01-1.08489E+03-1.73789E+03 2.00117E+01 8.76904E+01-1.50625E+02
 -1       153 2.60781E+02-1.43081E+03-2.45528E+03 1.87861E+01 1.13756E+02-1.76045E+02
 -1       154-2.87619E+02-3.49258E+02-8.17682E+02 3.17010E+01 8.45601E+01-1.75430E+02
 -1       155-1.08920E+03-1.36694E+03-2.99907E+03-1.05880E+02 2.97797E+02 5.99481E+02
 -1       156-2.55478E+02-6.94128E+02-9.61687E+02 2.63561E+01 4.86576E+01-1.45939E+02
 -1       157 2.58256E+02-1.44864E+03-2.43724E+03 3.08167E+01 1.79473E+02-1.73330E+02
 -1       158-2.87448E+02-3.46098E+02-8.21116E+02 2.78260E+01 7.44590E+01-1.75916E+02
 -1       159-5.54397E+02-8.04521E+02-1.86147E+03-3.34314E+01 1.92412E+02 1.90926E+02
 -1       160-1.08923E+03-1.35544E+03-3.01013E+03-9.26816E+01 2.61521E+02 6.01571E+02
 -1       161-2.61371E+02-5.60825E+02-1.00428E+03 1.07174E+01 7.97987E+01-5.67832E+01
 -1       162-3.32526E+02-1.35572E+03-2.61431E+03-2.49328E+01 2.28917E+02 1.41844E+02
 -1       163-2.56890E+02-6.92821E+02-9.63378E+02 2.29100E+01 4.28718E+01-1.46211E+02
 -1       164-2.49929E+01-1.09419E+03-1.73047E+03 2.61473E+01 1.15766E+02-1.49562E+02
 -1       165 2.59179E+02-1.44186E+03-2.44342E+03 2.63322E+01 1.58185E+02-1.74333E+02
 -1       166 3.11918E+02-1.09552E+03-1.77275E+03-1.82960E+00 9.08528E+01-1.09122E-01
 -1       167-6.00553E+01-1.95880E+03-2.73106E+03 7.65805E+00 1.02156E+02-7.06036E+01
 -1       168 1.70953E+01-8.54156E+02-1.25241E+03 2.25134E+01 5.37843E+01-1.77664E+02
 -1       169 1.73871E+01-1.74806E+03-2.69420E+03 5.30232E+00 1.26345E+02-5.14431E+01
 -1       170 3.08554E+02-1.09613E+03-1.77926E+03 7.72675E-01 7.64754E+01 4.07858E-01
 -1       171 1.21254E+02-1.51494E+03-2.21043E+03 8.57512E+00 9.17340E+01-6.22017E+01
 -1       172-5.91597E+01-1.95582E+03-2.73319E+03 6.66153E+00 8.61259E+01-7.04959E+01
 -1       173 3.13342E+02-1.10064E+03-1.75746E+03 2.41204E+00 1.19575E+02 7.64484E-01
 -1       174-6.33096E+01-1.97073E+03-2.71806E+03 1.15156E+01 1.37198E+02-6.99861E+01
 -1       175 1.87539E+01-8.58253E+02-1.24497E+03 3.26953E+01 7.09262E+01-1.76489E+02
 -1       176 1.45269E+01-1.76175E+03-2.68149E+03 8.56707E+00 1.68053E+02-5.04261E+01
 -1       177 3.12855E+02-1.09751E+03-1.76500E+03-4.84375E-02 1.04777E+02 2.91048E-01
 -1       178 1.22577E+02-1.52373E+03-2.19595E+03 1.13916E+01 1.23024E+02-6.17829E+01
 -1       179-6.15385E+01-1.96371E+03-2.72448E+03 9.59511E+00 1.18853E+02-7.02988E+01
 -1       180 9.59591E+01 3.36502E+02 6.70530E+02-5.73627E+00-4.32374E+01 4.37298E+01
 -1       181-2.79073E+02-1.10378E+02-1.65061E+02-2.66582E+01 6.99835E+00 2.06725E+02
 -1       182 9.69007E+01 3.33501E+02 6.72643E+02-4.39217E+00-3.61743E+01 4.29331E+01
 -1       183-2.01185E+02-8.57300E+01-1.45999E+02 2.45051E+00 9.09603E+00-2.99535E+01
 -1       184-6.55866E+01 1.45392E+02 3.16510E+02-1.03491E+01-2.23571E+01 8.01332E+01
 -1       185-2.76586E+02-1.10034E+02-1.65443E+02-2.28684E+01 5.78828E+00 2.06399E+02
 -1       186-3.31155E+02-4.15365E+02-5.88123E+02-8.09479E+00 2.39437E+01 5.84387E+01
 -1       187 9.14672E+01 3.40901E+02 6.62993E+02-7.13854E+00-5.77808E+01 4.50812E+01
 -1       188-2.84551E+02-1.12116E+02-1.64790E+02-3.72891E+01 9.38566E+00 2.06283E+02
 -1       189 9.42195E+01 3.39811E+02 6.67368E+02-6.41464E+00-5.01125E+01 4.44069E+01
 -1       190-2.03536E+02-8.83022E+01-1.48009E+02 3.64165E+00 1.17562E+01-2.87021E+01
 -1       191-7.03284E+01 1.46298E+02 3.12777E+02-1.40545E+01-2.98983E+01 8.05221E+01
 -1       192-2.81841E+02-1.11192E+02-1.64943E+02-3.19608E+01 8.08903E+00 2.06503E+02
 -1       193-3.32986E+02-4.17542E+02-5.86441E+02-1.06287E+01 3.11401E+01 5.86364E+01
 -1       194 3.86330E+02 9.27090E+00 3.01495E+02 5.18996E+01-4.22426E+01-3.70024E+02
 -1       195 2.76578E+01-8.28831E+01 4.44066E+00 6.77258E+00-1.33845E+01-3.65549E+01
 -1       196 3.94724E+02 1.36158E+01 3.08029E+02 4.10649E+01-3.38934E+01-3.71417E+02
 -1       197 4.38575E+02-4.40022E+02-5.06150E+02 3.71267E+01 5.27324E+00-3.03586E+02
 -1       198 3.83342E+02 7.58827E+00 2.96197E+02 6.25015E+01-5.24326E+01-3.67474E+02
 -1       199 2.31815E+01-8.41696E+01 2.02787E+00 4.44684E+00-1.58227E+01-3.54352E+01
 -1       200 3.84195E+02 6.89969E+00 2.98161E+02 5.76151E+01-4.74547E+01-3.68690E+02
 -1       201 4.32184E+02-4.42456E+02-5.03015E+02 4.91969E+01 1.00535E+01-3.01010E+02
 -1       202 3.03145E+01 2.83935E+00 6.71299E+00-2.29040E-01-6.94019E-01-5.33987E+00
 -1       203-4.31761E+01-8.04300E+01 1.18243E+02-2.86173E+00-2.52571E+01 1.59623E+01
 -1       204 4.63129E+01 8.66029E+00-1.53727E+01-6.33356E+00 3.40734E+00 5.09484E+01
 -1       205 5.26494E+01-1.53879E+02-2.94686E+01 3.68627E+00-1.70010E+01-2.44433E+01
 -1       206 2.90089E+01 2.43612E+00 6.56640E+00 3.26094E-01-4.20465E-01-6.17497E+00
 -1       207-2.25900E+01-4.45929E+01 5.77455E+01-1.62990E+00-1.32661E+01 4.86163E+00
 -1       208-4.46850E+01-8.11260E+01 1.17261E+02-4.25049E+00-2.13729E+01 1.50315E+01
 -1       209 3.33103E+01 3.96574E+00 7.44077E+00 3.85320E-01-6.44840E-01-3.71051E+00
 -1       210-4.58046E+01-7.90673E+01 1.15862E+02-4.33332E+00-3.50798E+01 1.69492E+01
 -1       211 4.87509E+01 9.54708E+00-1.36731E+01-8.40469E+00 4.69903E+00 4.92307E+01
 -1       212 5.36242E+01-1.54461E+02-3.59963E+01 4.93998E+00-2.23662E+01-2.46444E+01
 -1       213 3.18752E+01 3.55297E+00 7.12983E+00 1.43591E-01-6.60587E-01-4.53768E+00
 -1       214-2.23563E+01-4.38105E+01 5.66028E+01-1.76691E+00-1.82428E+01 6.68693E+00
 -1       215-4.44375E+01-7.96235E+01 1.17187E+02-3.53686E+00-3.00485E+01 1.64154E+01
 -1       216 6.13600E+01 1.62349E+01-4.21930E+00 2.38665E+00 5.52490E+00-1.11265E+01
 -1       217-1.14169E+01-5.81619E+01-8.78858E+00-1.85065E+00-1.42952E+01-6.55067E-01
 -1       218-3.78541E+01-1.65907E+01-8.99290E+00-9.50597E-01-7.52776E-01 2.88652E+00
 -1       219 6.85758E+00-6.63191E+01 2.31141E+01 7.23889E-01-1.27226E+01 4.31267E-01
 -1       220 6.02184E+01 1.62713E+01-3.56520E+00 1.42395E+00 4.27118E+00-8.05315E+00
 -1       221-9.44989E-01-3.17825E+01-1.72174E+01-5.38017E-01-4.03134E+00 2.43880E+00
 -1       222-8.65251E+00-5.95325E+01-6.38767E+00-1.57324E+00-1.11500E+01 3.83689E-02
 -1       223 6.06627E+01 1.50800E+01-7.07232E+00 3.06611E+00 5.77379E+00-1.66273E+01
 -1       224-9.80915E+00-5.66214E+01-8.97369E+00-4.78568E-01-1.19494E+01-4.43229E+00
 -1       225-3.80314E+01-1.68765E+01-1.06063E+01-7.20192E-01-1.58346E+00 3.34983E+00
 -1       226 5.93449E+00-6.51494E+01 2.60427E+01 5.70263E-01-1.60250E+01 4.67951E-01
 -1       227 6.10665E+01 1.56869E+01-5.61515E+00 2.58152E+00 5.69061E+00-1.38063E+01
 -1       228-3.64731E-01-3.13673E+01-1.86348E+01 1.97443E-01-2.69277E+00-2.97345E+00
 -1       229-1.02559E+01-5.65820E+01-8.54181E+00-1.08617E+00-1.32344E+01-2.34932E+00
 -1       230-9.31229E-01 1.00230E+02-1.52434E+02-1.13254E+00 3.38914E+01 1.97370E-02
 -1       231-8.73413E+01 2.18174E+02 2.37301E+02-5.75372E+00-2.81441E+00 4.13189E+01
 -1       232-2.15846E-01 1.02755E+02-1.53504E+02-1.00347E+00 2.83374E+01 1.37261E-01
 -1       233 3.08508E+01 5.73323E+01-6.81280E+01-5.96279E-01 1.68892E+01-2.21047E+00
 -1       234-1.18451E+00 9.53821E+01-1.48607E+02-7.34971E-01 4.46449E+01 1.09978E-01
 -1       235-8.57094E+01 2.18879E+02 2.38385E+02-7.85355E+00-3.82396E+00 4.30155E+01
 -1       236-1.29130E+00 9.72987E+01-1.50801E+02-9.76877E-01 3.91049E+01 5.69799E-02
 -1       237 3.21721E+01 5.59336E+01-6.55346E+01-3.81915E-01 2.23805E+01-1.86787E+00
 -1       238-9.91812E+01 2.50023E+01 2.56404E+01-5.13021E+00-3.68283E-01 3.25928E+01
 -1       239 5.68452E+01 9.19486E+01-1.92646E+01 3.19842E+00 1.52815E+01-1.83018E+01
 -1       240-1.00442E+02 2.55158E+01 2.64731E+01-4.97382E+00-8.26860E-02 3.17214E+01
 -1       241 7.00589E+00 3.14376E+01 2.14240E+01-5.65760E-01 2.22451E+00 2.40354E+00
 -1       242-9.46991E+01 2.63040E+01 2.54065E+01-8.10241E+00 7.63504E-02 3.37190E+01
 -1       243 5.43571E+01 9.06534E+01-1.90299E+01 4.47935E+00 2.00167E+01-1.88781E+01
 -1       244-9.72672E+01 2.46618E+01 2.51396E+01-6.56460E+00-1.38952E-01 3.31513E+01
 -1       245 8.77333E+00 3.12886E+01 1.97789E+01-1.42183E+00 2.53004E+00 9.89497E-01
 -1       246-6.29928E+01 1.61055E+03-5.70457E+02 2.19753E-01-6.94218E-01 7.26732E+01
 -1       247-4.11438E+00 1.93928E+03-8.15029E+02-1.68087E-02 1.98870E+00-6.82539E+00
 -1       248-3.96676E+00 1.93304E+03-8.09527E+02 1.22666E+00 1.19128E+02-6.26562E+00
 -1       249-6.26224E+01 1.60550E+03-5.66443E+02-2.71072E+00 9.51310E+01 7.28118E+01
 -1       250 1.41394E+01 7.56372E+02-2.12672E+02 7.81729E-02 1.59291E-01-2.00748E+01
 -1       251-3.57806E-01 8.27845E+02-2.43964E+02-3.14244E-01-3.45269E-01 5.67784E+00
 -1       252-8.17725E-01 8.23238E+02-2.39120E+02-1.72298E+00 4.67002E+01 5.53838E+00
 -1       253 1.39427E+01 7.55802E+02-2.11082E+02 6.17658E-01 4.25389E+01-2.01330E+01
 -1       254-2.30904E+01 1.78509E+03-6.71240E+02 1.73513E-01 5.77874E-01 2.90816E+01
 -1       255-3.91573E+00 1.93654E+03-8.12300E+02 4.02992E-01 5.97538E+01-6.59364E+00
 -1       256-2.19301E+01 1.78010E+03-6.65914E+02-5.14803E-01 1.06412E+02 2.83119E+01
 -1       257-6.27609E+01 1.60812E+03-5.68320E+02-1.15995E+00 4.74961E+01 7.27579E+01
 -1       258-1.75164E+01 1.11379E+03-5.61511E+02 1.81726E-01-2.00705E-01 2.70149E+01
 -1       259-2.24957E+01 1.29443E+03-6.88694E+02-6.50041E-02 4.33750E-01-8.39902E-01
 -1       260-2.18582E+01 1.28868E+03-6.82348E+02-2.10057E-02 8.57811E+01-8.62375E-01
 -1       261-1.73557E+01 1.11105E+03-5.58204E+02-1.11276E+00 7.31915E+01 2.76500E+01
 -1       262 5.63409E+00 7.91461E+02-2.29418E+02-1.79166E-01-4.96151E-02-8.03772E+00
 -1       263-8.04519E-01 8.25257E+02-2.41664E+02-7.84088E-01 2.34292E+01 5.65414E+00
 -1       264 5.00004E+00 7.88562E+02-2.26456E+02-5.23718E-01 4.46689E+01-7.57464E+00
 -1       265 1.39862E+01 7.55825E+02-2.11985E+02 2.34585E-01 2.13090E+01-2.01049E+01
 -1       266-2.13486E+00 1.91521E+03-7.93495E+02 5.74517E-01 2.38700E+02-5.66862E+00
 -1       267-6.24942E+01 1.59273E+03-5.54209E+02-6.40910E+00 1.89379E+02 7.26172E+01
 -1       268-2.51015E+00 8.16347E+02-2.29798E+02-4.80874E-01 9.22808E+01 5.32095E+00
 -1       269 1.41036E+01 7.51126E+02-2.06074E+02 1.77677E+00 8.43439E+01-2.01105E+01
 -1       270-3.15975E+00 1.92386E+03-8.01561E+02 1.38973E+00 1.79383E+02-5.91060E+00
 -1       271-2.06920E+01 1.76529E+03-6.51034E+02-2.41813E+00 2.13058E+02 2.79231E+01
 -1       272-6.26325E+01 1.59893E+03-5.60442E+02-4.60360E+00 1.42028E+02 7.27191E+01
 -1       273-2.05528E+01 1.27603E+03-6.68140E+02 1.55923E-01 1.71343E+02-1.19325E+00
 -1       274-1.76850E+01 1.10178E+03-5.48715E+02-2.52946E+00 1.45557E+02 2.83049E+01
 -1       275-1.45447E+00 8.20028E+02-2.34309E+02-1.25906E+00 6.94346E+01 5.40229E+00
 -1       276 4.11311E+00 7.82566E+02-2.19443E+02 6.24225E-01 8.83445E+01-7.20233E+00
 -1       277 1.40945E+01 7.53754E+02-2.08450E+02 1.22234E+00 6.35144E+01-2.01410E+01
 -1       278 2.16534E+00 5.54147E+02 6.75647E+01 1.24898E-01-2.74946E-01 2.13739E+00
 -1       279-2.23756E+01 5.61216E+02-3.40201E+01-6.24693E-02-2.82835E-01 8.25079E+00
 -1       280-2.21192E+01 5.60614E+02-3.32827E+01 2.25337E-01 2.65502E+01 7.71159E+00
 -1       281 2.44897E+00 5.53019E+02 6.97643E+01 2.03538E-02 2.02391E+01 2.44512E+00
 -1       282-1.08271E+00 6.55974E+02-1.13444E+02-5.27810E-02 3.87252E-02-9.59867E-01
 -1       283 1.28355E+01 7.33212E+02-1.11684E+02 4.37593E-02 1.19173E-01-3.96391E+00
 -1       284 1.27149E+01 7.30292E+02-1.09217E+02-1.32754E-01 3.68933E+01-4.11778E+00
 -1       285-1.24529E+00 6.54752E+02-1.11567E+02-3.75938E-02 3.32194E+01-1.30905E+00
 -1       286 1.88438E-01 5.61977E+02 2.09807E+01 5.07948E-02-1.90163E-01-3.67248E+00
 -1       287-2.22220E+01 5.60907E+02-3.36671E+01 1.31802E-02 1.29862E+01 7.92293E+00
 -1       288 3.89409E-01 5.61143E+02 2.24642E+01 3.05715E-01 2.34786E+01-4.30395E+00
 -1       289 2.28500E+00 5.53574E+02 6.86528E+01 1.17459E-01 1.00298E+01 2.26790E+00
 -1       290-2.12092E+01 5.57103E+02-3.13488E+01-5.77826E-01 5.18071E+01 6.73041E+00
 -1       291 1.99717E+00 5.50000E+02 7.44839E+01-2.77970E-01 4.19637E+01 2.97338E+00
 -1       292 1.20706E+01 7.24585E+02-1.03883E+02 3.20885E-01 7.30537E+01-3.79152E+00
 -1       293-9.62003E-01 6.50612E+02-1.06513E+02 1.70381E-01 6.67447E+01-1.82446E+00
 -1       294-2.16897E+01 5.58888E+02-3.23215E+01-2.90217E-01 3.92170E+01 7.25754E+00
 -1       295 4.31180E-01 5.57883E+02 2.57658E+01 4.23296E-01 4.68956E+01-4.86065E+00
 -1       296 2.23805E+00 5.51526E+02 7.21097E+01-5.91317E-02 3.09334E+01 2.75003E+00
 -1       297 5.47288E+01 2.29388E+03-1.36893E+03 9.47686E-01-9.91364E+00-6.36716E+01
 -1       298 5.30652E+01 2.28658E+03-1.36133E+03 1.51435E+00 1.61257E+02-6.54401E+01
 -1       299-7.70778E+00 9.19898E+02-2.04780E+02-2.99084E-01 2.65992E+00 1.69704E+01
 -1       300-6.93033E+00 9.08348E+02-1.96284E+02-2.38405E-01 4.87280E+01 1.77867E+01
 -1       301 1.48440E+01 2.10641E+03-1.11348E+03 3.93398E-01-3.89310E+00-3.14062E+01
 -1       302 5.34833E+01 2.28922E+03-1.36559E+03 1.49902E+00 7.81947E+01-6.46137E+01
 -1       303 1.31848E+01 2.09899E+03-1.10750E+03 1.14328E+00 1.40910E+02-3.08917E+01
 -1       304 3.85842E+01 1.51682E+03-8.88215E+02-1.72178E-02-2.00183E+00-3.37847E+01
 -1       305 3.99703E+01 1.50694E+03-8.74703E+02 1.36599E+00 1.05547E+02-3.59524E+01
 -1       306-2.77609E+00 8.74520E+02-2.23272E+02-2.45534E-01 1.11395E+00 1.21633E+01
 -1       307-7.63017E+00 9.14075E+02-2.00715E+02-4.56960E-01 2.50110E+01 1.74273E+01
 -1       308-2.31158E+00 8.66751E+02-2.16348E+02-1.00963E+00 4.76648E+01 1.19399E+01
 -1       309 5.73775E+01 2.26903E+03-1.33165E+03 5.92117E+00 3.18735E+02-6.90538E+01
 -1       310-1.65789E+01 8.88869E+02-1.89666E+02-1.64443E+00 9.47590E+01 1.88777E+01
 -1       311 5.55980E+01 2.27875E+03-1.34611E+03 3.81271E+00 2.37979E+02-6.72023E+01
 -1       312 1.59988E+01 2.08080E+03-1.08539E+03 2.74868E+00 2.79699E+02-3.18100E+01
 -1       313 3.89236E+01 1.48773E+03-8.52834E+02 3.19401E+00 2.06750E+02-3.68258E+01
 -1       314-1.14659E+01 8.98611E+02-1.92808E+02-2.84523E+00 7.24475E+01 1.81390E+01
 -1       315-7.86088E+00 8.53779E+02-2.08225E+02-1.03893E+00 9.34877E+01 1.19069E+01
 -1       316 3.86878E+01 6.54823E+02 7.76108E+01-1.19938E+00 8.72698E-01-1.71817E+01
 -1       317 4.02315E+01 6.56554E+02 8.18403E+01 1.30083E-01 2.53525E+01-1.93904E+01
 -1       318-2.17288E+01 7.85646E+02-1.51478E+02 6.00805E-01-2.87111E-01 9.49856E+00
 -1       319-2.25479E+01 7.81150E+02-1.49944E+02 1.24835E-02 4.01707E+01 1.05774E+01
 -1       320-2.13744E+00 6.03725E+02 1.75869E+01-6.50504E-01 2.06204E-01 4.40112E+00
 -1       321 4.01982E+01 6.57097E+02 8.04528E+01-4.13896E-01 1.36779E+01-1.83746E+01
 -1       322-1.16836E+00 6.04258E+02 2.00554E+01-5.16033E-03 2.58674E+01 3.54293E+00
 -1       323 4.10439E+01 6.55616E+02 8.87508E+01 1.64657E+00 5.01454E+01-1.88552E+01
 -1       324-2.32906E+01 7.73170E+02-1.44249E+02-9.09850E-01 8.08310E+01 1.04599E+01
 -1       325 3.99047E+01 6.54537E+02 8.47213E+01 7.34575E-01 3.79872E+01-1.90565E+01
 -1       326-1.19862E-01 6.02028E+02 2.45027E+01-3.16822E-01 5.09661E+01 3.65016E+00
 -1       327-1.73312E+02-1.21467E+02 2.36605E+02 2.90469E-01-1.29076E+00 6.37244E+01
 -1       328 2.82126E+02-3.89389E+00 1.16265E+02 1.99730E-01 2.21403E+00-3.03142E-01
 -1       329 2.82077E+02-4.01235E+00 1.15396E+02 2.77276E-01-5.58707E+00 2.54492E-01
 -1       330-1.72364E+02-1.19256E+02 2.37211E+02-1.00815E+00-1.64608E+01 6.35576E+01
 -1       331-7.60188E+00-2.75985E+01 2.41625E+02 5.34346E-01-1.29790E+00 1.53918E+01
 -1       332 3.44476E+00-1.18463E+02 5.62438E+01 2.30083E-02-8.91735E-02-4.03155E+00
 -1       333 3.79303E+00-1.17965E+02 5.62117E+01 6.46750E-02-7.51060E+00-4.24262E+00
 -1       334-7.49137E+00-2.75396E+01 2.41135E+02-4.69878E-01-1.22433E+01 1.54867E+01
 -1       335 1.05918E+02-6.53583E+01 3.05012E+01-5.58320E-02 7.34588E-01 8.59348E+00
 -1       336 2.82239E+02-3.64786E+00 1.15977E+02 1.59110E-01-2.55502E+00-4.23027E-02
 -1       337 1.05807E+02-6.50605E+01 3.00745E+01-4.06477E-01-4.36071E+00 8.80308E+00
 -1       338-1.73061E+02-1.20953E+02 2.36758E+02-1.11581E+00-8.04831E+00 6.36099E+01
 -1       339-6.15875E+01-4.57101E+01 3.06178E+02 4.14879E-01-1.30206E+00 3.85944E+01
 -1       340 1.39964E+02-6.38616E+01 8.01846E+01 8.87665E-02 1.07172E+00-5.52936E+00
 -1       341 1.40141E+02-6.36233E+01 7.97692E+01 2.87716E-01-6.44333E+00-5.49186E+00
 -1       342-6.09191E+01-4.43532E+01 3.06488E+02-6.92085E-01-1.61467E+01 3.83804E+01
 -1       343-7.21217E+00-1.08414E+02-1.36496E+01 5.05692E-02-3.46850E-01 1.67768E+01
 -1       344 3.69297E+00-1.18067E+02 5.63329E+01 7.55560E-02-3.74745E+00-4.13538E+00
 -1       345-7.37170E+00-1.08290E+02-1.39224E+01-7.66239E-01-4.12576E+00 1.67331E+01
 -1       346-7.40177E+00-2.72683E+01 2.41559E+02 2.11697E-01-6.36515E+00 1.54466E+01
 -1       347 2.83271E+02-3.35133E+00 1.13705E+02-1.84163E-02-1.06542E+01 5.34301E-01
 -1       348-1.70753E+02-1.16260E+02 2.35156E+02-5.64797E+00-3.10130E+01 6.50288E+01
 -1       349 4.01181E+00-1.16305E+02 5.57653E+01 3.75144E-01-1.51425E+01-4.42277E+00
 -1       350-8.24101E+00-2.71441E+01 2.38460E+02-1.42984E+00-2.34311E+01 1.63826E+01
 -1       351 2.82577E+02-3.88179E+00 1.14429E+02 2.37484E-01-7.68284E+00 4.10355E-01
 -1       352 1.04613E+02-6.49786E+01 2.82963E+01-8.08256E-01-8.37660E+00 9.33888E+00
 -1       353-1.71317E+02-1.17134E+02 2.36362E+02-9.30506E-01-2.45028E+01 6.44692E+01
 -1       354 1.41036E+02-6.22796E+01 7.90982E+01 4.95790E-01-1.26105E+01-5.56472E+00
 -1       355-6.05903E+01-4.25533E+01 3.03691E+02-3.48374E+00-3.05405E+01 4.00731E+01
 -1       356 3.82989E+00-1.17287E+02 5.58940E+01 2.04146E-01-1.14200E+01-4.33272E+00
 -1       357-7.09046E+00-1.07327E+02-1.40945E+01-1.45318E+00-8.20676E+00 1.65396E+01
 -1       358-8.01736E+00-2.76975E+01 2.39652E+02-1.22640E+00-1.80160E+01 1.59185E+01
 -1       359 1.65967E+02 4.29099E+01 2.29682E+02-3.50557E-01-8.56192E-01-1.74725E+01
 -1       360-2.86283E+02-2.33637E+02-1.83217E+01-4.04201E-02 4.40083E-01-8.86402E+00
 -1       361-2.86380E+02-2.33042E+02-1.85004E+01 3.16563E-01-9.38893E+00-8.94346E+00
 -1       362 1.65702E+02 4.33271E+01 2.28919E+02 4.60323E-01-8.11723E+00-1.69376E+01
 -1       363 5.03132E+01-2.11669E+01 1.68590E+02 8.94234E-02-1.06931E+00-7.66675E-02
 -1       364-1.38597E+02-1.73367E+02 2.50308E+01 1.38965E-02 1.66167E-01-3.08578E+00
 -1       365-1.38500E+02-1.72869E+02 2.48900E+01 7.38788E-02-8.55527E+00-3.09525E+00
 -1       366 5.00967E+01-2.11508E+01 1.67712E+02-5.17062E-02-8.38556E+00 4.16343E-01
 -1       367-8.76508E+01-1.22771E+02-5.27075E+00 2.94496E-02-3.90354E-02 2.16451E+00
 -1       368-2.86321E+02-2.33285E+02-1.84314E+01 1.21870E-01-4.65386E+00-8.90015E+00
 -1       369-8.74191E+01-1.22329E+02-5.24086E+00-7.08877E-02-5.19348E+00 2.07436E+00
 -1       370 1.65751E+02 4.28974E+01 2.29244E+02 8.65819E-03-4.18336E+00-1.72070E+01
 -1       371-2.86405E+02-2.31787E+02-1.95033E+01 7.79446E-01-1.87399E+01-8.92569E+00
 -1       372 1.65574E+02 4.45411E+01 2.27553E+02 1.47231E+00-1.61342E+01-1.68996E+01
 -1       373-1.38591E+02-1.71595E+02 2.37679E+01 2.59868E-01-1.72291E+01-3.05375E+00
 -1       374 4.97598E+01-2.04504E+01 1.66123E+02-3.39302E-02-1.64641E+01 3.74037E-01
 -1       375-2.86404E+02-2.32438E+02-1.90168E+01 5.33825E-01-1.39943E+01-8.94077E+00
 -1       376-8.73755E+01-1.21669E+02-5.89687E+00-1.83312E-01-1.02210E+01 2.10379E+00
 -1       377 1.65716E+02 4.41032E+01 2.28326E+02 9.30714E-01-1.22091E+01-1.69236E+01
 -1       378 1.39062E+02 1.23946E+03-2.91148E+02-1.33878E-01-3.69436E+00-8.04033E+00
 -1       379 1.38916E+02 1.23654E+03-2.88121E+02 1.42188E-01 6.74866E+01-8.74338E+00
 -1       380 8.56195E-01 9.96244E+02-8.49193E+01-1.01431E-01 5.57821E-01-5.33078E+00
 -1       381 7.18218E-01 9.94172E+02-8.30214E+01 3.66086E-01 4.69219E+01-5.12365E+00
 -1       382 1.38969E+02 1.22831E+03-2.76869E+02 7.81721E-01 1.33202E+02-9.52797E+00
 -1       383 2.14281E-01 9.86938E+02-7.78543E+01 4.41322E-01 9.38360E+01-4.76881E+00
 -1       384-1.44821E+02 7.84817E+02 2.73976E+01-1.37187E-02-4.59396E-01 7.84715E+00
 -1       385-1.44964E+02 7.82966E+02 2.83280E+01-3.14926E-01 3.31246E+01 8.07377E+00
 -1       386-1.44987E+02 7.78620E+02 3.23573E+01-7.13318E-01 6.58167E+01 8.03368E+00
 -1       387-3.80486E+00 1.89099E+03-7.66971E+02-8.73862E-02 3.56644E+02-6.19003E+00
 -1       388-6.27090E+01 1.57221E+03-5.33593E+02-9.86427E+00 2.82134E+02 7.21597E+01
 -1       389-8.63047E-01 8.07126E+02-2.23082E+02 6.83180E-01 1.37860E+02 5.65990E+00
 -1       390 1.39839E+01 7.41313E+02-1.96418E+02 2.87523E+00 1.25392E+02-1.99179E+01
 -1       391-3.09717E+00 1.90279E+03-7.80257E+02-2.19366E-01 2.98065E+02-5.96903E+00
 -1       392-2.18803E+01 1.74278E+03-6.28268E+02-4.46998E+00 3.18066E+02 2.80116E+01
 -1       393-6.25688E+01 1.58253E+03-5.43966E+02-8.10222E+00 2.35643E+02 7.23860E+01
 -1       394-2.17878E+01 1.25867E+03-6.52224E+02 2.46266E-01 2.56265E+02-7.33217E-01
 -1       395-1.74038E+01 1.08557E+03-5.32971E+02-3.64506E+00 2.16701E+02 2.73914E+01
 -1       396-1.46056E+00 8.12031E+02-2.26303E+02 2.47253E-01 1.14950E+02 5.49562E+00
 -1       397 5.01720E+00 7.73232E+02-2.11118E+02 1.85924E+00 1.31640E+02-7.40676E+00
 -1       398 1.40576E+01 7.46413E+02-2.01168E+02 2.30191E+00 1.04887E+02-2.00163E+01
 -1       399-4.23394E+00 1.85591E+03-7.32090E+02 8.79682E-01 4.69758E+02-6.51241E+00
 -1       400-6.30652E+01 1.54483E+03-5.04880E+02-1.28768E+01 3.73281E+02 7.13829E+01
 -1       401-3.36094E-01 7.95543E+02-2.11586E+02-4.89931E-01 1.83417E+02 5.50903E+00
 -1       402 1.41687E+01 7.27172E+02-1.83467E+02 3.34906E+00 1.65645E+02-1.97300E+01
 -1       403-3.90800E+00 1.87365E+03-7.49433E+02 5.71870E-01 4.13143E+02-6.31990E+00
 -1       404-2.32082E+01 1.71118E+03-5.97617E+02-5.13701E+00 4.19894E+02 2.84855E+01
 -1       405-6.28925E+01 1.55856E+03-5.19186E+02-1.14469E+01 3.27771E+02 7.17537E+01
 -1       406-2.25290E+01 1.23457E+03-6.28983E+02-1.04731E-01 3.39204E+02-6.88540E-01
 -1       407-1.75617E+01 1.06321E+03-5.10990E+02-4.81405E+00 2.86507E+02 2.64817E+01
 -1       408-8.18312E-01 8.01089E+02-2.17500E+02-1.26863E-01 1.60562E+02 5.56061E+00
 -1       409 5.62088E+00 7.60584E+02-1.98680E+02 1.51703E+00 1.74556E+02-7.82739E+00
 -1       410 1.40460E+01 7.34022E+02-1.90041E+02 3.22444E+00 1.45466E+02-1.98017E+01
 -1       411-2.21181E+01 5.51788E+02-2.46627E+01-1.51870E+00 7.65890E+01 7.58409E+00
 -1       412 2.43926E+00 5.45343E+02 7.74203E+01-4.57089E-01 6.36494E+01 2.40532E+00
 -1       413 1.27032E+01 7.17579E+02-9.65305E+01 8.21622E-01 1.08920E+02-4.05904E+00
 -1       414-1.23962E+00 6.43038E+02-9.98220E+01 2.66425E-01 9.98362E+01-1.27371E+00
 -1       415-2.16930E+01 5.54465E+02-2.80078E+01-9.33368E-01 6.42233E+01 7.20908E+00
 -1       416 3.65222E-01 5.52922E+02 3.05746E+01 4.29822E-01 7.00604E+01-4.26098E+00
 -1       417 2.25843E+00 5.47674E+02 7.60084E+01-4.47484E-01 5.29557E+01 2.70132E+00
 -1       418-2.23673E+01 5.43092E+02-1.58886E+01-1.50181E+00 1.02252E+02 8.20393E+00
 -1       419 2.15253E+00 5.39425E+02 8.22995E+01-4.32088E-01 8.33948E+01 2.06717E+00
 -1       420 1.28450E+01 7.07802E+02-8.62491E+01 7.29350E-01 1.44303E+02-3.93964E+00
 -1       421-1.07667E+00 6.32782E+02-9.02567E+01 1.89643E-01 1.31556E+02-9.22219E-01
 -1       422-2.22132E+01 5.47400E+02-2.02521E+01-1.44293E+00 8.95042E+01 7.86390E+00
 -1       423 1.91525E-01 5.45622E+02 3.74011E+01 6.14265E-01 9.27590E+01-3.64706E+00
 -1       424 2.26286E+00 5.42375E+02 7.98298E+01-4.79144E-01 7.34933E+01 2.20688E+00
 -1       425 5.34711E+01 2.23168E+03-1.30478E+03 9.58017E+00 4.75152E+02-6.48505E+01
 -1       426-7.03020E+00 8.91835E+02-1.80104E+02-2.64015E+00 1.42342E+02 1.77058E+01
 -1       427 5.56048E+01 2.25115E+03-1.31821E+03 7.61897E+00 3.95595E+02-6.69517E+01
 -1       428 1.34564E+01 2.05016E+03-1.05789E+03 4.24054E+00 4.17221E+02-3.05470E+01
 -1       429 4.00549E+01 1.47098E+03-8.38388E+02 4.59820E+00 3.09165E+02-3.57378E+01
 -1       430-1.14486E+01 8.90478E+02-1.84686E+02-2.38928E-01 1.18716E+02 1.84224E+01
 -1       431-2.40341E+00 8.50467E+02-2.00225E+02-1.05852E+00 1.40087E+02 1.19606E+01
 -1       432 5.59572E+01 2.18411E+03-1.25525E+03 1.08283E+01 6.27417E+02-6.21071E+01
 -1       433-7.70792E+00 8.86172E+02-1.70946E+02-3.04376E+00 1.92004E+02 1.62605E+01
 -1       434 5.45706E+01 2.20718E+03-1.27994E+03 9.97297E+00 5.52128E+02-6.34660E+01
 -1       435 1.54203E+01 2.00920E+03-1.01454E+03 4.99242E+00 5.50212E+02-3.03600E+01
 -1       436 3.87229E+01 1.44454E+03-8.15586E+02 6.48367E+00 4.10173E+02-3.28329E+01
 -1       437-7.70258E+00 8.88923E+02-1.75708E+02-2.65329E+00 1.66986E+02 1.69970E+01
 -1       438-2.72656E+00 8.41631E+02-1.90113E+02-1.85431E+00 1.87685E+02 1.16016E+01
 -1       439 4.02197E+01 6.47762E+02 9.05906E+01 3.13366E+00 7.47553E+01-1.92017E+01
 -1       440-2.25249E+01 7.66888E+02-1.35612E+02-1.79052E+00 1.21315E+02 1.04397E+01
 -1       441 3.98899E+01 6.50356E+02 8.88902E+01 2.54203E+00 6.17021E+01-1.89275E+01
 -1       442-1.15379E+00 5.95419E+02 2.87682E+01-6.10241E-01 7.57309E+01 3.44688E+00
 -1       443 3.86779E+01 6.38028E+02 9.42782E+01 4.35638E+00 9.70052E+01-1.64736E+01
 -1       444-2.17726E+01 7.57151E+02-1.23132E+02-2.35267E+00 1.60979E+02 9.13816E+00
 -1       445 4.01852E+01 6.44367E+02 9.30619E+01 3.62610E+00 8.58249E+01-1.79164E+01
 -1       446-2.14359E+00 5.86197E+02 3.49991E+01-1.53927E-01 9.96929E+01 4.64776E+00
 -1       447 2.82061E+02-2.31722E+00 1.13563E+02-3.76747E-01-1.56741E+01 1.79438E-01
 -1       448-1.72499E+02-1.14474E+02 2.31879E+02-1.00450E+01-4.54870E+01 6.27726E+01
 -1       449 3.77082E+00-1.15191E+02 5.33353E+01 6.97514E-01-2.26576E+01-4.18649E+00
 -1       450-7.50246E+00-2.36064E+01 2.37140E+02-2.23541E+00-3.44206E+01 1.53414E+01
 -1       451 2.82553E+02-3.08747E+00 1.13517E+02-3.00262E-01-1.28061E+01 3.62437E-01
 -1       452 1.05778E+02-6.36654E+01 2.86289E+01-1.16726E+00-1.24174E+01 8.74634E+00
 -1       453-1.71395E+02-1.15029E+02 2.33946E+02-1.02017E+01-3.75104E+01 6.36619E+01
 -1       454 1.40146E+02-6.13946E+01 7.74991E+01 6.54735E-01-1.87025E+01-5.47569E+00
 -1       455-6.09897E+01-3.94544E+01 3.01291E+02-5.98896E+00-4.48058E+01 3.79283E+01
 -1       456 3.81004E+00-1.15897E+02 5.44206E+01 5.44897E-01-1.90211E+01-4.30174E+00
 -1       457-7.39344E+00-1.06822E+02-1.54520E+01-2.14381E+00-1.22264E+01 1.66192E+01
 -1       458-8.01448E+00-2.57577E+01 2.37710E+02-1.54853E+00-2.88207E+01 1.58957E+01
 -1       459 2.81717E+02-4.77767E-01 1.11470E+02-8.25022E-02-2.09768E+01-2.99242E-01
 -1       460-1.73487E+02-1.11533E+02 2.26092E+02-1.14431E+01-6.00036E+01 6.26758E+01
 -1       461 3.46120E+00-1.12972E+02 5.07983E+01 6.47808E-01-2.98424E+01-3.99223E+00
 -1       462-7.56072E+00-1.98344E+01 2.34003E+02-3.21623E+00-4.47959E+01 1.50623E+01
 -1       463 2.81963E+02-1.24960E+00 1.12607E+02-1.55606E-01-1.82528E+01-6.34501E-02
 -1       464 1.05739E+02-6.26470E+01 2.71978E+01-1.39806E+00-1.62818E+01 8.45905E+00
 -1       465-1.73242E+02-1.13373E+02 2.28528E+02-1.00294E+01-5.35464E+01 6.28181E+01
 -1       466 1.39703E+02-5.95250E+01 7.49668E+01 8.83299E-01-2.47741E+01-5.45608E+00
 -1       467-6.16541E+01-3.57047E+01 2.95957E+02-7.16402E+00-5.89445E+01 3.79210E+01
 -1       468 3.69574E+00-1.13928E+02 5.21858E+01 6.48141E-01-2.60879E+01-4.09394E+00
 -1       469-7.21200E+00-1.05567E+02-1.65042E+01-2.98009E+00-1.59038E+01 1.65063E+01
 -1       470-7.38253E+00-2.12830E+01 2.35627E+02-2.91285E+00-3.99400E+01 1.51770E+01
 -1       471-2.86370E+02-2.29757E+02-2.17442E+01 1.21651E+00-2.78915E+01-8.88696E+00
 -1       472 1.65673E+02 4.61675E+01 2.25995E+02 2.48483E+00-2.41010E+01-1.67443E+01
 -1       473-1.38530E+02-1.69833E+02 2.17454E+01 4.62660E-01-2.57379E+01-3.06455E+00
 -1       474 5.00742E+01-1.83054E+01 1.64786E+02-2.65325E-02-2.44088E+01 4.27302E-01
 -1       475-2.86394E+02-2.30800E+02-2.06160E+01 1.02344E+00-2.33110E+01-8.91086E+00
 -1       476-8.74008E+01-1.20549E+02-6.96780E+00-3.00970E-01-1.51563E+01 2.04087E+00
 -1       477 1.65707E+02 4.55040E+01 2.26901E+02 2.01017E+00-2.00227E+01-1.68216E+01
 -1       478-2.86287E+02-2.27125E+02-2.48449E+01 1.59631E+00-3.71849E+01-8.67307E+00
 -1       479 1.66015E+02 4.83648E+01 2.24387E+02 3.39268E+00-3.11450E+01-1.71504E+01
 -1       480-1.38527E+02-1.67249E+02 1.91440E+01 5.21411E-01-3.41492E+01-3.02230E+00
 -1       481 5.03572E+01-1.57137E+01 1.63285E+02-7.74309E-02-3.14257E+01-9.60385E-02
 -1       482-2.86322E+02-2.28446E+02-2.32669E+01 1.41132E+00-3.24335E+01-8.77288E+00
 -1       483-8.76479E+01-1.19302E+02-8.73006E+00-3.99905E-01-2.00259E+01 2.14124E+00
 -1       484 1.65766E+02 4.71684E+01 2.25031E+02 2.98899E+00-2.79379E+01-1.69407E+01
 -1       485 1.39055E+02 1.21365E+03-2.64720E+02 1.46720E+00 1.98392E+02-8.62801E+00
 -1       486 7.70696E-01 9.77596E+02-6.62726E+01 4.92174E-01 1.39971E+02-5.08079E+00
 -1       487 1.39872E+02 1.19401E+03-2.43022E+02 1.42572E+00 2.62074E+02-7.80909E+00
 -1       488 8.23122E-01 9.63303E+02-5.20842E+01 1.03401E+00 1.84457E+02-5.24058E+00
 -1       489-1.44995E+02 7.71465E+02 3.97124E+01-1.07906E+00 9.80279E+01 8.02678E+00
 -1       490-1.44814E+02 7.62084E+02 5.01284E+01-1.42685E+00 1.29829E+02 7.73753E+00
 -3
    1PSTEP                         6           1           2          
  100CL  102 2.000000000         490                     0    2           1
 -4  FORC        4    1
 -5  F1          1    2    1    0
 -5  F2          1    2    2    0
 -5  F3          1    2    3    0
 -5  ALL         1    2    0    0    1ALL
 -1         1-1.67994E+00 1.31309E+01-1.89192E+00
 -1         2-1.34014E+00 2.25358E+01-3.39370E+00
 -1         3-2.63903E+00 2.36970E-01-6.79661E+00
 -1         4-3.36624E+00 1.86376E-01-3.74803E+00
 -1         5 1.98685E-04 2.94699E+01-4.85365E-03
 -1         6-8.72200E-04 4.26378E+01-9.54360E-04
 -1         7-5.32277E-12-8.47361E-11 4.15383E-12
 -1         8-9.45216E-13-9.80000E-12-9.44800E-13
 -1         9 1.67715E+00-6.62445E+01 1.23950E+01
 -1        10 1.06235E+00-2.78611E-01 1.35411E+01
 -1        11 3.36067E+00-1.10359E+00 2.47662E+01
 -1        12-3.36685E+00-3.89748E-01 1.72630E+01
 -1        13-3.84013E-04-7.63034E+01 2.42952E-03
 -1        14 7.03498E-04-8.07931E+01 2.33074E-03
 -1        15-8.13204E-14 1.09993E-13-4.74620E-15
 -1        16 9.88938E-14 1.25399E-13 5.79536E-14
 -1        17-1.51613E-04-1.34281E+02 4.59162E-03
 -1        18 9.91707E-13 1.88752E-10 7.24076E-12
 -1        19 4.73736E-12-3.53091E-11-1.61460E-12
 -1        20 2.78428E-12 1.37200E-10-2.74214E-12
 -1        21-2.59703E+00 5.93615E-01-6.78795E+00
 -1        22-3.36886E+00 3.23420E-01-3.73907E+00
 -1        23-1.23140E-12 3.84688E-11-2.89102E-12
 -1        24 2.15484E-12 1.68292E-11-1.33182E-12
 -1        25 1.08645E+00-8.57878E-01 1.34757E+01
 -1        26 3.37937E+00-2.16300E+00 2.46597E+01
 -1        27-3.36937E+00-1.13194E+00 1.72117E+01
 -1        28-1.19342E-13-1.42109E-14-8.88178E-16
 -1        29-2.50984E-14-8.52651E-14-1.59872E-14
 -1        30 2.60253E-12 9.25157E-11-9.18732E-12
 -1        31 3.01800E-13 2.11742E-11 5.98632E-12
 -1        32-3.04232E-12-3.66516E-11 3.93297E-12
 -1        33-5.03623E-04 1.52105E+01 3.27682E+00
 -1        34 9.57833E-04 2.21544E+01 6.89162E+00
 -1        35 2.94446E-12-5.98820E-01 1.37103E+01
 -1        36 3.76985E-12-2.81799E-01 6.45194E+00
 -1        37 3.99322E-04-7.42039E+01 8.83115E-03
 -1        38-4.12811E-04-8.90670E+01 4.91260E-03
 -1        39 6.27434E-12-4.66343E-11-2.65768E-11
 -1        40 1.94341E-12-4.34492E-11 1.03444E-11
 -1        41-1.92016E-03-6.55465E+01-1.51274E+01
 -1        42 6.67547E-12 5.26649E-01-2.41155E+01
 -1        43 3.17370E-12 1.32364E+00-3.03054E+01
 -1        44 3.36090E-12 3.78960E-01-1.73528E+01
 -1        45-1.30773E-12-1.19143E+00 1.36157E+01
 -1        46-6.98948E-13-5.63627E-01 6.44116E+00
 -1        47 3.77923E-12-1.25908E-11 2.09344E-12
 -1        48-4.86955E-12 1.85167E-11 4.07141E-12
 -1        49 6.43084E-12 1.57006E+00-2.39478E+01
 -1        50-5.35239E-13 2.64067E+00-3.01777E+01
 -1        51-4.35633E-12 1.12950E+00-1.72280E+01
 -1        52-2.24256E-01 5.99056E+00-1.12637E+00
 -1        53-3.19727E-01-3.12001E-02-2.16167E+00
 -1        54 6.46329E-04 7.25942E+00 3.01150E-03
 -1        55 2.24623E-11 1.10001E-10-5.40270E-12
 -1        56 1.55385E+00-1.30342E+01 1.08833E+00
 -1        57 2.38698E+00 1.00204E-01-2.05245E+00
 -1        58 2.98859E+00 6.16337E-02 2.27882E+00
 -1        59 5.94722E-04 1.37257E+01 9.15579E-04
 -1        60 9.87581E-12-4.47846E-12 1.10571E-12
 -1        61 8.21516E-04-4.36085E+01 3.29110E-03
 -1        62-1.16869E-11-1.53980E-10-3.54459E-12
 -1        63-2.40910E-12-5.00725E-12-1.29106E-11
 -1        64-1.88813E-01 1.79050E-01-2.03666E+00
 -1        65-3.92082E-12-7.93712E-11-4.39981E-13
 -1        66 2.33330E+00 1.67089E-01-2.10584E+00
 -1        67 2.86636E+00-2.05971E-01 2.34126E+00
 -1        68-2.45697E-12-1.06297E-11-8.17568E-13
 -1        69-4.36743E-13-1.41136E-11-5.99365E-12
 -1        70-1.35721E-12-1.27756E-11-8.90843E-13
 -1        71 9.39009E-04 9.78784E+00 4.89371E+00
 -1        72 2.04089E-11-4.24783E-01 9.72563E+00
 -1        73 1.54661E-03-2.88420E+01-2.26286E-03
 -1        74-1.45333E-11-7.40388E-11 2.18282E-12
 -1        75 9.24669E-04-2.17366E+01-1.02786E+01
 -1        76 5.11523E-12 4.56420E-02-2.08997E+00
 -1        77-1.08072E-11 9.04330E-01-2.07050E+01
 -1        78-1.62999E-11-8.43250E-01 9.63670E+00
 -1        79 8.05890E-13-1.46692E-11 2.90878E-13
 -1        80 3.71340E-12 1.23696E-01-1.88670E+00
 -1        81 4.98532E-12 1.82297E+00-2.08330E+01
 -1        82-3.54044E-05 3.20768E+00 2.50764E-03
 -1        83 3.44216E-04-2.90002E+00-3.57673E-03
 -1        84-1.16449E-13 1.36771E-12-1.87114E-12
 -1        85-6.46177E-12 7.74488E-11 1.66758E-13
 -1        86-9.09019E-04-1.37196E+01-3.51849E-03
 -1        87-1.08086E-03 6.32527E+00 7.84864E-03
 -1        88 2.91717E-11-3.68205E-11-1.32436E-12
 -1        89-2.00733E-12-2.03580E-11 1.63083E-12
 -1        90-1.52236E-03-1.42178E+01 3.87546E-03
 -1        91-6.04439E-13-7.52441E-12-1.60407E-12
 -1        92 1.06503E-11-1.73441E-11-9.39449E-13
 -1        93-3.49630E-12-7.88893E-11-7.51419E-13
 -1        94 9.18858E-12-1.37614E-11-8.86125E-13
 -1        95-3.82261E-01-3.29610E-10 2.92143E-10
 -1        96-2.41815E-12-1.44116E-11-1.31850E-12
 -1        97-2.77438E-12-8.86580E-12 9.68114E-14
 -1        98-4.41490E-12 5.57382E-12 3.81969E-14
 -1        99 1.03035E-12-3.27915E-12-2.32014E-12
 -1       100 3.61779E-12-5.05924E-12 3.27892E-12
 -1       101-6.92426E-04 9.20343E-01-5.38837E-04
 -1       102-2.53970E-04 2.52103E-01 1.20055E-03
 -1       103-3.92071E-12-3.10963E-12-4.15334E-13
 -1       104-1.98844E-12 4.37399E-12-6.20322E-13
 -1       105 9.49250E-04-6.01850E+00 8.94923E-04
 -1       106 5.70382E-04-1.62782E+00-2.58682E-03
 -1       107-6.89971E-12-9.22189E-13-3.09104E-12
 -1       108 1.94680E-12 2.79675E-12-8.48113E-12
 -1       109 5.98077E-04-4.46909E+00-6.52014E-04
 -1       110 4.30355E-12 2.20570E-12-2.44076E-14
 -1       111 6.44091E-12 2.73966E-12 1.31319E-14
 -1       112-9.31000E-13-4.94975E-12 6.99319E-14
 -1       113-1.18737E-12-1.10176E-12 4.38104E-14
 -1       114-1.29534E-12 2.23488E-13-2.03282E-13
 -1       115 9.60204E-13-3.54827E-13-2.91614E-13
 -1       116 7.80702E-13 3.15303E-13-5.78981E-14
 -1       117 8.31044E-13 4.56929E-12 3.75297E-13
 -1       118 5.16471E-12-6.22613E-13-1.68088E-13
 -1       119 1.73329E-12-1.38514E-13 2.89165E-13
 -1       120 8.13391E-05-5.23481E+00 4.44434E-04
 -1       121-3.56206E-12-4.42532E-12 5.79869E-13
 -1       122 9.76137E-05 2.45219E+01-7.81340E-04
 -1       123-7.55035E-13 5.57711E-12 1.42057E-13
 -1       124-2.57550E-04 2.23872E+01-5.54521E-04
 -1       125-2.48666E-13-8.19762E-12-1.07884E-13
 -1       126 5.64293E-12 2.01357E-12 4.51060E-13
 -1       127 4.81874E-12 6.75016E-14-3.46945E-14
 -1       128-1.41320E-12 6.78568E-13 1.69642E-13
 -1       129-3.42018E-12 4.63942E-13 7.02459E-14
 -1       130 2.19378E-12-2.20268E-13 1.86517E-14
 -1       131 6.99453E-05-1.37499E+00-2.75568E-05
 -1       132-4.05826E-12 1.64013E-13 1.99759E-13
 -1       133-6.57243E-05 8.56152E+00 6.46116E-05
 -1       134 2.12586E-12-1.54759E-12 2.39074E-14
 -1       135-1.42328E-05 5.00132E+00-1.08630E-04
 -1       136 1.95163E-12 9.31551E-13 8.85333E-14
 -1       137 1.20217E-12 1.83555E-12-3.56385E-13
 -1       138 2.74164E-12-1.05627E-12-1.09593E-13
 -1       139-3.58056E-12 6.67910E-13-7.39409E-14
 -1       140-7.21881E-13-6.32078E-13 4.69277E-14
 -1       141-1.25625E-12 7.14984E-13 2.06724E-13
 -1       142-2.63941E+00 9.36218E-01-6.68817E+00
 -1       143-3.36556E+00 4.63783E-01-3.71929E+00
 -1       144-1.21585E-12 1.54932E-11-7.35623E-13
 -1       145 1.04814E-12 6.15858E-12 2.70278E-12
 -1       146 1.08621E+00-1.49345E+00 1.34005E+01
 -1       147 3.36340E+00-3.22418E+00 2.45827E+01
 -1       148-3.36827E+00-1.87379E+00 1.71557E+01
 -1       149-5.83292E-14 8.97384E-15-7.30045E-14
 -1       150-7.88367E-15-1.74756E-14-8.15459E-14
 -1       151 7.26363E-14 3.93519E-11-9.07024E-13
 -1       152 1.33253E-13-5.84044E-12 1.75182E-12
 -1       153 3.04409E-14 1.27164E-11 2.36078E-12
 -1       154-1.33949E+00-2.16062E+01-7.21728E+00
 -1       155-1.68210E+00-1.25988E+01-4.12932E+00
 -1       156 8.72199E-04-4.19912E+01-7.40346E+00
 -1       157-1.98714E-04-2.90238E+01-5.11292E+00
 -1       158 1.06243E+00-2.06572E+00 1.33107E+01
 -1       159 1.67503E+00 6.31022E+01 2.37094E+01
 -1       160-3.36524E+00-2.61158E+00 1.70453E+01
 -1       161-7.03483E-04 7.95673E+01 1.40276E+01
 -1       162 3.84008E-04 7.51458E+01 1.32479E+01
 -1       163-4.88803E-13-5.41831E-11 7.41733E-13
 -1       164 1.51641E-04 1.32242E+02 2.33135E+01
 -1       165-1.38747E-13-1.59981E-11 1.68054E-12
 -1       166 2.22465E-12-1.76546E+00 1.34118E+01
 -1       167 2.65227E-12-8.43078E-01 6.40465E+00
 -1       168-1.70519E-12-3.95692E-12-2.25969E-12
 -1       169 1.68975E-13-2.55177E-12 1.94406E-12
 -1       170-4.99192E-13 2.60330E+00-2.37738E+01
 -1       171 1.89054E-12 3.95768E+00-3.00655E+01
 -1       172-1.00747E-12 1.88426E+00-1.72074E+01
 -1       173-9.57796E-04-2.29898E+01 2.79483E+00
 -1       174 5.03600E-04-1.55412E+01 5.39916E-01
 -1       175 4.12780E-04 8.77154E+01 1.54620E+01
 -1       176-3.99261E-04 7.30791E+01 1.28771E+01
 -1       177-1.52621E-12 3.62044E+00-2.35245E+01
 -1       178 1.92012E-03 6.71785E+01-3.52673E+00
 -1       179-1.88111E-12 2.62585E+00-1.70620E+01
 -1       180-3.18276E-01 3.98134E-01-2.07184E+00
 -1       181-7.26454E-13-8.09775E-11-4.74145E-12
 -1       182 2.33316E+00 2.02869E-01-2.13577E+00
 -1       183 2.98947E+00-4.62635E-01 2.23116E+00
 -1       184-1.11262E-12-6.65264E-12 1.57636E-12
 -1       185-1.72970E-12 4.88892E-11 1.28362E-11
 -1       186-9.94649E-13-9.33333E-13 7.56846E-13
 -1       187-2.22950E-01-5.71027E+00-2.11234E+00
 -1       188-6.46273E-04-7.14876E+00-1.26364E+00
 -1       189 2.38551E+00 2.70270E-01-2.11044E+00
 -1       190 1.55353E+00 1.26542E+01 3.33738E+00
 -1       191-5.94752E-04-1.35166E+01-2.38429E+00
 -1       192 8.90149E-13-2.51391E-11 4.71009E-12
 -1       193-8.21558E-04 4.29466E+01 7.56947E+00
 -1       194-1.93868E-12-1.23334E+00 9.36939E+00
 -1       195-1.01690E-11-3.69119E-11-1.23943E-12
 -1       196 5.50643E-12 1.87306E-01-1.71051E+00
 -1       197-4.61875E-12 2.70431E+00-2.05439E+01
 -1       198-9.38912E-04-1.04578E+01 2.94251E+00
 -1       199-1.54665E-03 2.84033E+01 5.01061E+00
 -1       200-2.84087E-12 2.58853E-01-1.68194E+00
 -1       201-9.24719E-04 2.31900E+01-6.34421E+00
 -1       202 7.39466E-12 1.30691E-11-2.80712E-13
 -1       203-1.96280E-12-1.05133E-11-4.57940E-13
 -1       204-1.12338E-11-2.22282E-11 1.57190E-13
 -1       205-1.37962E-12-1.71606E-11-2.60478E-12
 -1       206 6.19036E-12 6.45216E-12-1.76031E-13
 -1       207 1.71680E-12 3.35274E-12 8.95253E-13
 -1       208 5.14222E-12-2.91010E-11 3.06862E-13
 -1       209-3.44220E-04 2.85534E+00 5.07106E-01
 -1       210 3.53978E-05-3.15855E+00-5.59485E-01
 -1       211 1.08086E-03-6.22780E+00-1.10610E+00
 -1       212 9.09024E-04 1.35106E+01 2.38586E+00
 -1       213-1.22418E-11-9.96248E-13-7.00695E-13
 -1       214 1.52236E-03 1.40025E+01 2.46508E+00
 -1       215-7.68506E-13 1.09867E-11 1.43753E-12
 -1       216 8.25656E-12-3.33735E-12-3.68688E-13
 -1       217-9.26457E-13-6.40319E-13-5.01717E-14
 -1       218-5.55545E-15-1.96708E-12 7.05532E-13
 -1       219 1.47501E-12 6.66934E-13 1.08167E-12
 -1       220 2.37626E-12-1.75127E-12-1.13843E-13
 -1       221 3.17851E-12 1.40739E-12 1.19196E-12
 -1       222 8.73688E-13 6.75335E-13-3.22901E-14
 -1       223 2.53970E-04-2.48066E-01-4.49597E-02
 -1       224 6.92426E-04-9.06464E-01-1.59287E-01
 -1       225-5.70382E-04 1.60264E+00 2.85215E-01
 -1       226-9.49249E-04 5.92723E+00 1.04422E+00
 -1       227-5.57240E-12-1.94983E-14-2.32626E-14
 -1       228-5.98076E-04 4.40108E+00 7.76690E-01
 -1       229 2.41905E-12 1.67885E-12 9.22248E-14
 -1       230 9.17016E-13 6.23019E-13-2.97812E-13
 -1       231-1.40610E-12-1.52761E-12-3.07844E-13
 -1       232 1.89707E-12-2.39464E-13 4.93393E-13
 -1       233 1.43395E-12-3.45258E-12-8.81127E-13
 -1       234-8.13390E-05 5.15539E+00 9.08583E-01
 -1       235-9.76134E-05-2.41495E+01-4.25743E+00
 -1       236-1.63192E-12 8.71657E-13-4.63653E-14
 -1       237 2.57549E-04-2.20471E+01-3.88694E+00
 -1       238 2.56443E-12-1.16367E-12-6.33764E-14
 -1       239 1.03115E-12-1.81875E-12-5.27946E-14
 -1       240 1.82471E-12 1.08483E-12 2.72865E-13
 -1       241-6.17409E-13 3.29417E-13 6.03573E-13
 -1       242-6.99453E-05 1.35411E+00 2.38793E-01
 -1       243 6.57241E-05-8.43144E+00-1.48676E+00
 -1       244 3.43074E-12 2.00118E-13-1.28855E-13
 -1       245 1.42328E-05-4.92536E+00-8.68362E-01
 -1       246 1.33590E-03-3.61642E+01 9.34479E-03
 -1       247 3.18409E-03-7.68207E+01-4.27676E-02
 -1       248-8.37025E-13-7.35634E-13-3.90932E-12
 -1       249-1.65158E-12-1.16043E-12-4.63141E-12
 -1       250-2.73550E-04-3.58668E+01-1.62185E-04
 -1       251 9.70400E-04-7.79059E+01 7.64217E-03
 -1       252-6.83208E-12-1.00656E-12-2.64119E-12
 -1       253-2.73462E-12 6.13988E-14-1.97535E-12
 -1       254-3.79392E-03 2.26514E+02-1.01371E-02
 -1       255 6.96609E-13 2.92855E-12-9.20664E-12
 -1       256 2.98017E-12 6.70575E-14 7.44294E-13
 -1       257 5.10092E-13 1.49225E-12 1.67732E-12
 -1       258 6.70275E-04 8.18502E+01 9.67178E-04
 -1       259-4.78695E-03 1.87657E+02-1.16134E-02
 -1       260-1.68977E-13 9.54029E-14 1.73457E-12
 -1       261 1.62812E-12-7.98733E-13-3.72663E-13
 -1       262 1.58991E-04 1.25904E+02 2.43991E-04
 -1       263 3.05507E-12 3.25789E-12 3.55989E-12
 -1       264 1.13565E-11 2.71227E-13 5.97784E-13
 -1       265-1.59335E-12-4.18773E-13-6.46469E-13
 -1       266 1.11375E-12 6.67910E-13-8.87646E-12
 -1       267 6.69222E-13 1.56319E-13-2.49667E-12
 -1       268-1.41013E-13 6.25278E-13-1.55342E-12
 -1       269 9.73137E-13-2.70006E-13 1.57785E-12
 -1       270 8.96949E-13 3.30846E-14 6.12288E-12
 -1       271-1.58373E-12 1.42109E-13-5.67368E-12
 -1       272 1.22646E-12 1.31894E-12 1.86695E-12
 -1       273-2.55018E-12-1.30740E-12-1.42109E-13
 -1       274 6.74944E-13 4.68958E-13-1.05338E-12
 -1       275 3.49880E-12-1.76622E-12 1.15472E-12
 -1       276 1.64052E-12 4.12115E-13-1.03917E-12
 -1       277 5.78063E-13-3.70485E-13-1.26552E-12
 -1       278 1.74445E-04-1.30278E+01 2.97392E-05
 -1       279-1.20901E-03-2.82007E+01-9.61956E-04
 -1       280-3.83489E-12 9.19841E-13 1.19553E-12
 -1       281 1.26368E-12-7.61551E-13-1.29903E-13
 -1       282-3.00272E-04 4.72600E+01-4.84510E-04
 -1       283 2.20795E-03 1.05012E+02 2.44290E-03
 -1       284 3.79386E-12-5.26013E-13 9.39994E-13
 -1       285 2.07296E-13-3.10051E-13 2.50302E-13
 -1       286 5.50603E-05 4.54895E+01 1.61804E-04
 -1       287 4.29779E-13-1.83493E-12-6.53054E-14
 -1       288 1.20767E-12-3.69607E-13 1.94331E-13
 -1       289 8.16928E-13-5.42309E-13-2.08167E-14
 -1       290 4.32739E-12-2.73559E-13 1.70930E-12
 -1       291 4.50183E-12-2.57572E-13-4.53637E-13
 -1       292-3.84112E-12-7.53175E-13 1.02496E-12
 -1       293-2.18696E-12 4.19220E-13-1.33493E-12
 -1       294-3.13336E-13-1.31642E-12 3.99309E-13
 -1       295-5.76363E-13 1.13687E-13 5.55112E-13
 -1       296 9.28604E-13-2.83523E-13-5.13312E-13
 -1       297 8.08049E-03-3.93311E+01 6.04526E-01
 -1       298 4.53207E-13-6.61916E-02 1.50127E+00
 -1       299-1.57629E-04-4.16679E+01-6.97473E-03
 -1       300 3.04276E-12 6.62949E-13-8.10690E-13
 -1       301-3.66697E-03 2.83033E+02-8.52246E-03
 -1       302 1.63147E-13-8.08521E-01 3.70257E+01
 -1       303-1.15297E-12 1.02518E-12 2.95630E-12
 -1       304 1.24612E-03 1.07323E+02 1.06466E-02
 -1       305-9.00617E-13 7.33198E-14-4.49231E-13
 -1       306-1.84143E-03 1.49601E+02 5.75571E-04
 -1       307 2.24359E-12-1.47046E-12 9.17384E-13
 -1       308-5.61462E-13 4.76133E-13 3.76566E-12
 -1       309 2.37713E-13-1.53616E-01 1.75322E+00
 -1       310 3.44367E-01 2.78625E-10-2.63927E-10
 -1       311-2.03892E-13-2.39781E+00 3.65779E+01
 -1       312 1.42418E-12-1.59162E-12-2.67875E-12
 -1       313-6.14681E-13 9.66338E-13-5.09814E-13
 -1       314-1.10091E-12 5.26176E-13 1.42931E-13
 -1       315-1.85364E-12 1.10845E-12 9.00613E-13
 -1       316-7.42737E-04-1.45876E+01 2.42669E-03
 -1       317-6.22332E-12 1.35905E-13 8.60766E-13
 -1       318 4.16964E-04 5.72540E+01-4.53721E-03
 -1       319 3.63550E-13 7.62012E-13 3.63882E-13
 -1       320 1.07801E-03 5.23997E+01-1.48117E-04
 -1       321 7.88135E-13 6.90364E-13-2.10387E-13
 -1       322 2.17123E-12-1.23096E-13-4.79998E-13
 -1       323-1.20444E-02-1.16742E-11 8.50608E-12
 -1       324 4.99221E-02 4.83737E-11-3.82849E-11
 -1       325 2.69947E-12-5.09925E-13 2.53658E-13
 -1       326-4.16802E-12 5.82645E-13 5.44453E-13
 -1       327-5.63802E-01 2.20712E+00-1.52743E+00
 -1       328 9.66086E-04-3.80819E+01-6.58235E+00
 -1       329-9.51600E-14 5.73011E-01-1.31326E+01
 -1       330-1.10773E+00 1.68788E-01-3.09127E+00
 -1       331-3.72046E-01 6.81336E+00 1.45802E+00
 -1       332 1.23694E-03-6.99372E+01 1.46245E-02
 -1       333 1.49880E-15-4.25604E-13 2.22677E-12
 -1       334-8.00367E-01-1.70562E-01 2.95530E+00
 -1       335-5.88816E-04-9.14497E+00-1.30404E-02
 -1       336 1.08941E-13-1.42730E-01 6.53568E+00
 -1       337 4.60049E-15 4.04989E-14 1.61204E-13
 -1       338-1.04758E+00 1.64596E-01-6.74233E+00
 -1       339 6.21095E-01-8.35252E+00-3.30398E-01
 -1       340-2.38400E-03 7.15550E+01 6.94158E-04
 -1       341-1.86448E-13-3.21965E-13 2.07767E-12
 -1       342 1.27396E+00 5.14276E-02-6.37715E-01
 -1       343 2.32533E-05-2.24972E+01 1.33152E-02
 -1       344-1.27440E-13-2.89851E-13-2.77045E-12
 -1       345-4.06272E-14-3.23169E-13-5.34572E-13
 -1       346 7.81979E-01-5.75210E-02 2.89677E+00
 -1       347 1.43330E-13 1.14399E+00-1.30753E+01
 -1       348-1.22588E+00 2.66798E-01-3.06100E+00
 -1       349 4.69763E-14-2.84217E-14 2.00018E-12
 -1       350-7.75963E-01-2.59624E-01 2.97782E+00
 -1       351-1.17961E-14-4.25451E-01 6.48932E+00
 -1       352 5.34295E-16-6.75016E-14-8.31557E-14
 -1       353-1.07019E+00 4.48811E-01-6.68681E+00
 -1       354 7.08808E-15 5.40012E-13-3.49587E-12
 -1       355 1.14512E+00 4.74880E-02-5.80228E-01
 -1       356-2.72365E-13 6.76681E-14 2.90240E-12
 -1       357 5.46022E-14-2.98428E-13-1.60094E-13
 -1       358 8.01870E-01-1.95488E-01 2.91082E+00
 -1       359-2.33162E-01 4.34253E+00 1.57170E+00
 -1       360-4.26958E-04-3.16264E+01-5.70779E-04
 -1       361-2.36547E-14-3.64320E-13 1.18461E-12
 -1       362-4.56637E-01-1.33063E-01 3.15358E+00
 -1       363 5.62642E-01-8.70639E+00-1.31333E+00
 -1       364 1.64891E-04 4.27545E+01-1.11850E-03
 -1       365 1.21847E-13-4.90719E-14-6.46316E-13
 -1       366 1.11166E+00 9.31766E-02-2.62653E+00
 -1       367-3.69698E-04-1.22516E+01-8.08665E-04
 -1       368-1.21847E-13-4.48336E-13 1.10895E-12
 -1       369 3.79002E-14-3.78864E-14-5.30687E-14
 -1       370 1.95974E-01-8.62665E-02 3.79072E+00
 -1       371 1.91409E-13-4.61853E-14-2.03260E-12
 -1       372-4.56561E-01-2.74396E-01 3.15074E+00
 -1       373-1.48229E-13-7.46070E-13 1.15152E-12
 -1       374 1.12825E+00 2.29271E-01-2.61786E+00
 -1       375 4.46310E-14 2.34701E-13 1.75138E-13
 -1       376 4.36040E-14 1.26121E-13-5.57332E-14
 -1       377 2.05606E-01-2.53346E-01 3.76009E+00
 -1       378 1.09128E-04 1.29112E+02 1.63886E+01
 -1       379 2.28983E-14-1.42941E+00 3.27529E+01
 -1       380-3.86843E-03 2.17980E+02-5.26157E-02
 -1       381 1.65395E-13 1.72140E-13-1.39838E-12
 -1       382 3.61662E-13-2.85540E+00 3.26347E+01
 -1       383-2.10526E-14 1.70530E-13-1.92557E-12
 -1       384-7.02732E-04 9.04233E+01 4.15597E-03
 -1       385 7.56201E-14 8.65641E-13-1.36569E-12
 -1       386 7.57172E-14-1.84741E-13-1.16707E-12
 -1       387-1.38820E-12 7.68718E-13-3.94795E-13
 -1       388 1.00464E-12-4.13447E-13 1.47815E-12
 -1       389-4.71031E-13-9.57585E-14-1.56593E-12
 -1       390 4.85535E-12 4.74299E-13-1.09385E-12
 -1       391-3.03590E-13-4.72955E-13-5.82023E-12
 -1       392-2.62343E-12 2.31815E-12 1.00808E-13
 -1       393-2.91656E-13 1.07292E-12 6.11511E-12
 -1       394 4.84276E-13 1.28905E-12 9.13297E-13
 -1       395-1.50014E-12 6.20934E-13-3.37785E-14
 -1       396-1.50212E-12-1.18014E-12 1.20628E-12
 -1       397-4.50646E-12 4.78671E-13-5.17071E-13
 -1       398 8.28367E-14-3.70790E-13 3.59462E-13
 -1       399-3.18415E-03 7.56505E+01 1.33827E+01
 -1       400-1.33595E-03 3.56200E+01 6.27127E+00
 -1       401-9.70402E-04 7.67241E+01 1.35208E+01
 -1       402 2.73543E-04 3.53221E+01 6.22839E+00
 -1       403-9.87099E-13-3.10818E-12 8.46623E-12
 -1       404 3.79403E-03-2.23081E+02-3.93249E+01
 -1       405 1.76148E-12 8.82849E-13-1.21547E-12
 -1       406 4.78696E-03-1.84809E+02-3.25751E+01
 -1       407-6.70274E-04-8.06072E+01-1.42142E+01
 -1       408-1.02252E-12 4.31923E-12-1.77212E-12
 -1       409-1.58983E-04-1.23992E+02-2.18633E+01
 -1       410 2.01619E-12 5.21496E-13 2.32740E-12
 -1       411 1.10422E-12-6.55198E-13 1.19197E-12
 -1       412-3.19935E-13-4.40148E-13 1.87225E-13
 -1       413 1.55927E-12-6.46323E-13-1.63587E-12
 -1       414 1.97770E-12-8.49112E-14 5.70210E-13
 -1       415 2.29912E-14-1.05058E-12 2.32661E-13
 -1       416 1.41565E-12 6.59806E-13-4.09020E-13
 -1       417-1.43368E-13 4.93050E-13-2.86160E-14
 -1       418 1.20901E-03 2.77722E+01 4.89796E+00
 -1       419-1.74445E-04 1.28299E+01 2.26223E+00
 -1       420-2.20795E-03-1.03417E+02-1.82376E+01
 -1       421 3.00273E-04-4.65422E+01-8.20614E+00
 -1       422-1.86745E-13 5.19029E-14 7.79675E-13
 -1       423-5.50604E-05-4.47985E+01-7.89933E+00
 -1       424 5.54522E-14-1.22577E-12 6.87159E-13
 -1       425-1.87898E-12-2.56361E-01 1.94425E+00
 -1       426-5.74941E-06-1.15238E-12-1.37819E-12
 -1       427-5.49005E-14-3.96688E+00 3.62263E+01
 -1       428 3.99790E-12 2.74292E-12-2.03082E-12
 -1       429 1.55412E-12 6.69409E-13-1.09135E-13
 -1       430 2.15420E-05-6.33965E-13 1.76145E-12
 -1       431 8.48337E-12-9.49499E-13 3.99950E-12
 -1       432-8.08048E-03 3.85787E+01 7.72015E+00
 -1       433 1.57628E-04 4.10339E+01 7.24249E+00
 -1       434 9.06220E-14-5.51935E+00 3.58630E+01
 -1       435 3.66697E-03-2.78736E+02-4.91404E+01
 -1       436-1.24613E-03-1.05692E+02-1.86472E+01
 -1       437 1.03088E-12 6.43069E-13-1.46947E-12
 -1       438 1.84143E-03-1.47329E+02-2.59786E+01
 -1       439-5.52319E-07-4.67237E-13 1.01126E-12
 -1       440 7.27950E-07 1.04999E-13 3.04210E-13
 -1       441 7.53396E-07 1.69198E-12 2.67425E-13
 -1       442-8.41005E-12 1.88960E-13-6.94909E-13
 -1       443 7.42736E-04 1.43665E+01 2.53073E+00
 -1       444-4.16963E-04-5.63850E+01-9.93760E+00
 -1       445 2.66642E-12 1.96954E-13-8.47933E-15
 -1       446-1.07801E-03-5.16036E+01-9.09895E+00
 -1       447 3.50192E-13 1.71085E+00-1.29999E+01
 -1       448-1.10964E+00 3.74365E-01-3.10417E+00
 -1       449 3.17815E-13-9.50795E-13-1.43219E-13
 -1       450-8.01012E-01-3.43646E-01 2.94534E+00
 -1       451 3.14526E-13-7.07979E-01 6.46539E+00
 -1       452-7.77850E-15 3.77660E-13 5.71765E-14
 -1       453-1.07160E+00 7.17718E-01-6.64153E+00
 -1       454-2.37067E-13-2.08689E-12-1.99851E-12
 -1       455 1.26995E+00 5.28609E-02-6.38545E-01
 -1       456-2.31273E-13-4.88498E-13 5.23637E-13
 -1       457 6.75848E-15-7.02285E-14-3.29847E-13
 -1       458 8.02328E-01-3.12400E-01 2.89946E+00
 -1       459-9.66098E-04 3.86387E+01 1.84466E-01
 -1       460-5.63866E-01-1.90276E+00-1.91335E+00
 -1       461-1.23692E-03 6.88776E+01 1.21302E+01
 -1       462-3.71385E-01-6.96613E+00 2.53495E-01
 -1       463 3.03715E-14-9.85792E-01 6.40538E+00
 -1       464 5.88814E-04 9.00372E+00 1.60086E+00
 -1       465-1.04618E+00 9.98820E-01-6.61383E+00
 -1       466 2.38398E-03-7.04682E+01-1.24263E+01
 -1       467 6.22712E-01 8.29413E+00 1.12334E+00
 -1       468-1.19418E-13 1.11788E-12-2.57627E-12
 -1       469-2.32502E-05 2.21574E+01 3.89344E+00
 -1       470 7.81323E-01-4.45435E-01 2.85932E+00
 -1       471-1.70600E-13-6.82121E-13 7.89563E-13
 -1       472-4.56915E-01-4.16766E-01 3.12812E+00
 -1       473-1.61177E-13 4.18832E-13 7.01661E-14
 -1       474 1.11189E+00 3.66923E-01-2.60183E+00
 -1       475-4.54775E-14 7.17204E-14-1.58207E-13
 -1       476-2.07750E-14 1.41262E-13 1.40998E-14
 -1       477 2.05794E-01-4.05743E-01 3.74563E+00
 -1       478 4.26916E-04 3.11468E+01 5.49259E+00
 -1       479-2.33636E-01-4.55127E+00 7.95052E-01
 -1       480-1.64850E-04-4.21068E+01-7.42343E+00
 -1       481 5.63135E-01 8.79978E+00 2.15315E-01
 -1       482 2.19186E-13 2.51799E-13 4.13336E-13
 -1       483 3.69698E-04 1.20657E+01 2.12832E+00
 -1       484 1.96621E-01-5.70839E-01 3.74827E+00
 -1       485 1.24366E-13-4.27429E+00 3.24766E+01
 -1       486-2.45470E-13 1.23401E-12-5.54279E-13
 -1       487-1.09126E-04-1.29979E+02-6.38569E+00
 -1       488 3.86837E-03-2.14675E+02-3.77997E+01
 -1       489-1.01918E-13 1.48015E-12-7.07767E-13
 -1       490 7.02790E-04-8.90521E+01-1.57065E+01
 -3
    1PSTEP                         7           1           3          
  100CL  103 3.000000000         490                     0    3           1
 -4  DISP        4    1
 -5  D1          1    2    1    0
 -5  D2          1    2    2    0
 -5  D3          1    2    3    0
 -5  ALL         1    2    0    0    1ALL
 -1         1 2.71796E-19 1.94373E-23-4.02912E-19
 -1         2-4.74782E-20 4.63661E-24-9.19403E-20
 -1         3 0.00000E+00 0.00000E+00 0.00000E+00
 -1         4 0.00000E+00 0.00000E+00 0.00000E+00
 -1         5 4.80886E-03-2.07998E-07-6.41032E-03
 -1         6 3.06961E-03-1.48889E-07-2.86218E-03
 -1         7 3.07886E-03 1.71510E-04-2.85815E-03
 -1         8 4.83492E-03 3.14471E-04-6.41319E-03
 -1         9 1.04334E-19 1.90744E-23-2.39396E-19
 -1        10 0.00000E+00 0.00000E+00 0.00000E+00
 -1        11 0.00000E+00 0.00000E+00 0.00000E+00
 -1        12 0.00000E+00 0.00000E+00 0.00000E+00
 -1        13 2.42625E-03 3.55379E-08-3.41711E-03
 -1        14 5.53575E-04-1.63404E-08-1.12960E-03
 -1        15 5.63689E-04 7.08963E-05-1.13126E-03
 -1        16 2.43580E-03 1.66632E-04-3.41525E-03
 -1        17 3.79827E-03-5.16693E-08-4.49158E-03
 -1        18 3.07501E-03 8.57015E-05-2.86004E-03
 -1        19 3.79217E-03 1.78478E-04-4.48410E-03
 -1        20 4.81973E-03 1.56662E-04-6.41321E-03
 -1        21 0.00000E+00 0.00000E+00 0.00000E+00
 -1        22 0.00000E+00 0.00000E+00 0.00000E+00
 -1        23 3.07334E-03 2.49678E-04-2.85254E-03
 -1        24 4.84894E-03 5.59073E-04-6.38855E-03
 -1        25 0.00000E+00 0.00000E+00 0.00000E+00
 -1        26 0.00000E+00 0.00000E+00 0.00000E+00
 -1        27 0.00000E+00 0.00000E+00 0.00000E+00
 -1        28 5.62899E-04 9.86755E-05-1.12729E-03
 -1        29 2.44071E-03 2.97939E-04-3.40492E-03
 -1        30 3.07611E-03 2.10406E-04-2.85644E-03
 -1        31 3.79268E-03 3.91230E-04-4.47093E-03
 -1        32 4.84367E-03 4.36804E-04-6.40255E-03
 -1        33 1.10045E-02 1.82679E-07-1.01243E-02
 -1        34 1.01333E-02 1.89469E-08-7.08859E-03
 -1        35 1.00877E-02 2.53049E-04-7.08139E-03
 -1        36 1.09725E-02 4.02951E-04-1.01170E-02
 -1        37 7.95460E-03 2.86397E-07-8.49218E-03
 -1        38 6.53490E-03 2.78828E-07-5.06069E-03
 -1        39 6.52212E-03 2.08822E-04-5.06791E-03
 -1        40 7.95067E-03 3.68196E-04-8.48324E-03
 -1        41 1.05150E-02-2.70333E-07-8.60844E-03
 -1        42 1.01063E-02 1.27111E-04-7.08922E-03
 -1        43 1.05191E-02 3.98828E-04-8.59676E-03
 -1        44 1.09928E-02 2.01987E-04-1.01245E-02
 -1        45 1.01201E-02 6.13992E-04-7.01663E-03
 -1        46 1.09603E-02 8.81893E-04-1.00804E-02
 -1        47 6.52915E-03 4.41274E-04-5.04457E-03
 -1        48 7.95349E-03 7.40316E-04-8.46238E-03
 -1        49 1.01046E-02 4.34215E-04-7.05028E-03
 -1        50 1.05185E-02 7.48376E-04-8.55195E-03
 -1        51 1.09639E-02 6.41872E-04-1.00994E-02
 -1        52 1.32214E-19 7.44649E-24 9.26637E-19
 -1        53 0.00000E+00 0.00000E+00 0.00000E+00
 -1        54 2.31112E-03-1.72297E-08 4.86534E-04
 -1        55 2.33992E-03 4.65723E-05 4.40566E-04
 -1        56-5.11664E-20 7.43495E-24 3.81945E-20
 -1        57 0.00000E+00 0.00000E+00 0.00000E+00
 -1        58 0.00000E+00 0.00000E+00 0.00000E+00
 -1        59 4.34965E-04-1.77179E-08 9.33567E-04
 -1        60 4.29362E-04-1.20917E-05 9.33881E-04
 -1        61 2.48189E-03 3.59329E-08-1.29553E-03
 -1        62 2.32507E-03 2.32319E-05 4.63116E-04
 -1        63 2.47910E-03 3.39137E-05-1.30675E-03
 -1        64 0.00000E+00 0.00000E+00 0.00000E+00
 -1        65 2.27319E-03-4.22050E-05 4.83064E-04
 -1        66 0.00000E+00 0.00000E+00 0.00000E+00
 -1        67 0.00000E+00 0.00000E+00 0.00000E+00
 -1        68 3.89733E-04-8.11888E-05 9.28473E-04
 -1        69 2.30427E-03 3.21470E-06 4.63363E-04
 -1        70 2.48149E-03 1.12086E-04-1.28081E-03
 -1        71 1.01385E-02 1.63856E-07-4.03678E-03
 -1        72 1.00722E-02 3.84281E-05-4.03524E-03
 -1        73 5.51936E-03 1.08861E-07-1.17073E-03
 -1        74 5.47099E-03 2.00246E-05-1.13662E-03
 -1        75 1.01030E-02-1.77385E-07-5.56470E-03
 -1        76 1.01091E-02 1.85856E-05-4.03852E-03
 -1        77 1.01642E-02 2.88852E-04-5.55407E-03
 -1        78 1.03722E-02 3.43443E-04-3.92528E-03
 -1        79 5.61622E-03 1.04557E-04-1.19484E-03
 -1        80 1.02310E-02 1.92907E-04-3.98153E-03
 -1        81 1.01633E-02 4.79100E-04-5.47440E-03
 -1        82 5.57607E-02 2.20770E-07-8.56409E-03
 -1        83 4.68372E-02 4.76360E-08 7.74591E-05
 -1        84 4.76270E-02 5.20263E-05 7.96967E-05
 -1        85 5.71015E-02 2.97070E-04-8.49442E-03
 -1        86 2.99737E-02-2.24016E-08-7.54652E-03
 -1        87 1.86034E-02 9.49923E-08 4.20384E-04
 -1        88 1.88555E-02-5.37254E-05 4.35080E-04
 -1        89 3.05530E-02 4.12691E-04-7.61830E-03
 -1        90 5.13152E-02 1.22488E-07-4.23125E-03
 -1        91 4.72315E-02 2.47247E-05 8.03452E-05
 -1        92 5.24356E-02 1.63464E-04-4.26515E-03
 -1        93 5.64232E-02 1.51543E-04-8.52491E-03
 -1        94 4.82506E-02-1.20269E-05 1.39022E-04
 -1        95 5.94407E-02 7.97493E-04-9.11393E-03
 -1        96 1.91600E-02-3.74129E-05 4.28227E-04
 -1        97 3.08550E-02 6.63538E-04-7.58289E-03
 -1        98 4.79497E-02 1.82965E-05 9.69225E-05
 -1        99 5.39160E-02 3.86916E-04-4.42091E-03
 -1       100 5.82356E-02 5.39613E-04-8.77214E-03
 -1       101 1.04407E-01 2.15617E-07-7.61333E-03
 -1       102 1.04379E-01 9.75684E-08 2.30916E-05
 -1       103 1.04410E-01 2.92150E-05 6.24313E-05
 -1       104 1.04605E-01 3.42351E-04-7.66485E-03
 -1       105 8.09481E-02 1.08662E-07-8.16617E-03
 -1       106 7.68008E-02 1.53169E-07-1.00678E-04
 -1       107 7.71312E-02-1.76108E-05-1.09171E-04
 -1       108 8.14317E-02 3.72647E-04-8.16245E-03
 -1       109 1.04367E-01 1.61607E-07-3.82166E-03
 -1       110 1.04393E-01 1.51789E-05 3.70410E-05
 -1       111 1.04464E-01 1.81517E-04-3.77681E-03
 -1       112 1.04507E-01 1.68157E-04-7.63615E-03
 -1       113 1.04165E-01-2.71476E-05 3.12402E-04
 -1       114 1.05895E-01 7.22167E-04-8.25230E-03
 -1       115 7.75957E-02 1.92900E-05-2.19223E-04
 -1       116 8.14201E-02 6.99063E-04-7.98896E-03
 -1       117 1.04283E-01-1.43555E-06 1.98658E-04
 -1       118 1.04976E-01 3.41526E-04-3.90160E-03
 -1       119 1.05274E-01 5.41229E-04-7.98736E-03
 -1       120 3.81663E-02 8.08091E-08 8.51392E-03
 -1       121 3.81374E-02-3.70210E-04 8.52230E-03
 -1       122 1.02798E-02 6.44604E-08 5.48973E-03
 -1       123 1.02785E-02-2.35600E-04 5.47897E-03
 -1       124 4.24307E-02 6.68623E-08 4.32128E-03
 -1       125 3.81511E-02-1.84243E-04 8.52027E-03
 -1       126 4.28306E-02-1.58151E-04 4.32028E-03
 -1       127 3.81504E-02-7.38729E-04 8.44466E-03
 -1       128 1.02700E-02-4.78746E-04 5.47253E-03
 -1       129 3.81402E-02-5.53558E-04 8.49098E-03
 -1       130 4.31567E-02-3.80139E-04 4.34622E-03
 -1       131 1.04565E-01 1.52066E-07 7.38481E-03
 -1       132 1.04506E-01-3.11416E-04 7.38811E-03
 -1       133 7.26617E-02 1.22952E-07 8.29784E-03
 -1       134 7.26984E-02-3.73392E-04 8.28290E-03
 -1       135 1.04490E-01 1.23056E-07 3.66603E-03
 -1       136 1.04534E-01-1.57518E-04 7.39019E-03
 -1       137 1.04480E-01-1.38629E-04 3.68737E-03
 -1       138 1.04509E-01-6.38462E-04 7.29927E-03
 -1       139 7.27021E-02-7.25348E-04 8.29215E-03
 -1       140 1.04512E-01-4.76357E-04 7.34047E-03
 -1       141 1.04375E-01-3.26894E-04 3.73829E-03
 -1       142 0.00000E+00 0.00000E+00 0.00000E+00
 -1       143 0.00000E+00 0.00000E+00 0.00000E+00
 -1       144 3.07890E-03 3.27571E-04-2.84465E-03
 -1       145 4.83479E-03 8.04090E-04-6.37047E-03
 -1       146 0.00000E+00 0.00000E+00 0.00000E+00
 -1       147 0.00000E+00 0.00000E+00 0.00000E+00
 -1       148 0.00000E+00 0.00000E+00 0.00000E+00
 -1       149 5.63696E-04 1.26708E-04-1.12644E-03
 -1       150 2.43586E-03 4.29099E-04-3.39242E-03
 -1       151 3.07613E-03 2.89011E-04-2.84974E-03
 -1       152 3.79209E-03 6.02917E-04-4.44673E-03
 -1       153 4.84361E-03 6.81825E-04-6.38102E-03
 -1       154 0.00000E+00 0.00000E+00 0.00000E+00
 -1       155 0.00000E+00 0.00000E+00 0.00000E+00
 -1       156 3.06966E-03 4.96873E-04-2.81874E-03
 -1       157 4.80889E-03 1.11295E-03-6.31300E-03
 -1       158 0.00000E+00 0.00000E+00 0.00000E+00
 -1       159 0.00000E+00 0.00000E+00 0.00000E+00
 -1       160 0.00000E+00 0.00000E+00 0.00000E+00
 -1       161 5.53592E-04 1.96141E-04-1.11245E-03
 -1       162 2.42628E-03 5.93421E-04-3.36522E-03
 -1       163 3.07505E-03 4.12222E-04-2.83185E-03
 -1       164 3.79831E-03 7.79915E-04-4.42338E-03
 -1       165 4.81971E-03 9.59248E-04-6.34318E-03
 -1       166 1.00880E-02 9.80481E-04-7.01746E-03
 -1       167 1.09713E-02 1.35954E-03-1.00297E-02
 -1       168 6.52208E-03 6.74336E-04-5.02701E-03
 -1       169 7.95086E-03 1.11043E-03-8.41801E-03
 -1       170 1.01047E-02 7.96717E-04-7.01784E-03
 -1       171 1.05188E-02 1.10026E-03-8.53479E-03
 -1       172 1.09633E-02 1.12143E-03-1.00564E-02
 -1       173 1.01334E-02 1.23095E-03-6.98091E-03
 -1       174 1.10045E-02 1.75826E-03-9.97045E-03
 -1       175 6.53496E-03 8.79066E-04-4.98379E-03
 -1       176 7.95466E-03 1.47495E-03-8.36314E-03
 -1       177 1.01065E-02 1.10563E-03-7.00184E-03
 -1       178 1.05151E-02 1.49459E-03-8.47773E-03
 -1       179 1.09922E-02 1.55911E-03-1.00035E-02
 -1       180 0.00000E+00 0.00000E+00 0.00000E+00
 -1       181 2.33990E-03-1.22243E-04 4.25795E-04
 -1       182 0.00000E+00 0.00000E+00 0.00000E+00
 -1       183 0.00000E+00 0.00000E+00 0.00000E+00
 -1       184 4.29347E-04-1.50190E-04 9.21776E-04
 -1       185 2.30426E-03-8.34973E-05 4.55659E-04
 -1       186 2.47917E-03 1.93576E-04-1.29277E-03
 -1       187 0.00000E+00 0.00000E+00 0.00000E+00
 -1       188 2.31115E-03-8.45038E-05 4.79141E-04
 -1       189 0.00000E+00 0.00000E+00 0.00000E+00
 -1       190 0.00000E+00 0.00000E+00 0.00000E+00
 -1       191 4.34981E-04-1.62133E-04 9.19392E-04
 -1       192 2.32508E-03-1.03212E-04 4.51791E-04
 -1       193 2.48194E-03 2.25006E-04-1.27586E-03
 -1       194 1.00723E-02 6.62876E-04-3.98097E-03
 -1       195 5.47105E-03 1.77679E-04-1.12294E-03
 -1       196 1.02311E-02 5.01374E-04-3.95412E-03
 -1       197 1.01643E-02 6.80225E-04-5.51985E-03
 -1       198 1.01386E-02 7.01153E-04-3.97546E-03
 -1       199 5.51943E-03 2.03406E-04-1.15294E-03
 -1       200 1.01093E-02 6.82935E-04-3.97918E-03
 -1       201 1.01031E-02 9.66138E-04-5.48021E-03
 -1       202 4.76270E-02-6.48189E-05 6.93872E-05
 -1       203 5.71016E-02 1.18259E-03-8.41690E-03
 -1       204 1.88555E-02-2.25422E-05 4.37906E-04
 -1       205 3.05530E-02 9.16750E-04-7.57426E-03
 -1       206 4.79497E-02-3.45889E-05 9.22984E-05
 -1       207 5.24356E-02 5.79846E-04-4.22874E-03
 -1       208 5.82356E-02 9.92053E-04-8.73276E-03
 -1       209 4.68373E-02-1.34035E-05 7.62893E-05
 -1       210 5.57608E-02 1.48736E-03-8.43395E-03
 -1       211 1.86035E-02-7.29054E-05 4.14013E-04
 -1       212 2.99738E-02 1.31042E-03-7.43188E-03
 -1       213 4.72315E-02-3.81423E-05 7.49005E-05
 -1       214 5.13153E-02 7.34870E-04-4.16695E-03
 -1       215 5.64233E-02 1.33145E-03-8.42213E-03
 -1       216 1.04410E-01-3.92790E-05 5.65233E-05
 -1       217 1.04605E-01 9.94056E-04-7.60800E-03
 -1       218 7.71312E-02 3.65342E-05-1.04450E-04
 -1       219 8.14317E-02 1.05071E-03-8.10303E-03
 -1       220 1.04283E-01-3.27339E-05 1.95937E-04
 -1       221 1.04464E-01 4.77350E-04-3.75097E-03
 -1       222 1.05274E-01 8.54269E-04-7.95993E-03
 -1       223 1.04379E-01-3.91378E-06 2.27580E-05
 -1       224 1.04407E-01 1.32225E-03-7.49762E-03
 -1       225 7.68009E-02 1.76334E-05-9.91219E-05
 -1       226 8.09482E-02 1.41815E-03-8.04209E-03
 -1       227 1.04393E-01-2.11074E-05 3.38689E-05
 -1       228 1.04367E-01 6.63783E-04-3.76357E-03
 -1       229 1.04507E-01 1.16068E-03-7.54912E-03
 -1       230 3.81374E-02-1.11514E-03 8.45717E-03
 -1       231 1.02785E-02-7.19291E-04 5.43664E-03
 -1       232 3.81402E-02-9.29134E-04 8.45815E-03
 -1       233 4.28306E-02-5.94254E-04 4.28211E-03
 -1       234 3.81663E-02-1.47835E-03 8.38459E-03
 -1       235 1.02798E-02-9.53222E-04 5.40635E-03
 -1       236 3.81511E-02-1.29793E-03 8.42287E-03
 -1       237 4.24308E-02-7.50317E-04 4.25564E-03
 -1       238 1.04506E-01-9.75957E-04 7.32998E-03
 -1       239 7.26985E-02-1.07035E-03 8.22193E-03
 -1       240 1.04512E-01-8.05254E-04 7.31170E-03
 -1       241 1.04480E-01-5.03470E-04 3.65550E-03
 -1       242 1.04565E-01-1.28221E-03 7.27265E-03
 -1       243 7.26617E-02-1.44078E-03 8.17180E-03
 -1       244 1.04534E-01-1.12787E-03 7.30532E-03
 -1       245 1.04490E-01-6.36477E-04 3.61036E-03
 -1       246 9.92461E-02 1.76658E-07 2.16378E-02
 -1       247 9.91383E-02 2.79749E-07 2.30535E-02
 -1       248 9.91392E-02-9.83760E-04 2.30093E-02
 -1       249 9.93005E-02-9.52036E-04 2.16006E-02
 -1       250 5.73387E-02 1.05775E-07 2.20429E-02
 -1       251 5.97416E-02 4.23252E-07 1.63948E-02
 -1       252 5.92528E-02-7.11594E-04 1.64038E-02
 -1       253 5.73688E-02-9.86377E-04 2.20014E-02
 -1       254 9.93582E-02 2.03089E-07 2.22942E-02
 -1       255 9.91356E-02-4.93043E-04 2.30400E-02
 -1       256 9.93842E-02-9.66196E-04 2.22569E-02
 -1       257 9.92746E-02-4.74577E-04 2.16225E-02
 -1       258 8.40340E-02 1.62650E-07 2.30248E-02
 -1       259 8.84115E-02-6.42016E-08 1.82802E-02
 -1       260 8.82974E-02-8.03815E-04 1.82493E-02
 -1       261 8.39787E-02-1.01889E-03 2.30333E-02
 -1       262 5.85471E-02 2.79792E-07 1.91490E-02
 -1       263 5.95008E-02-3.56060E-04 1.63992E-02
 -1       264 5.83187E-02-8.42092E-04 1.91320E-02
 -1       265 5.73640E-02-4.95197E-04 2.20257E-02
 -1       266 9.93675E-02-1.99895E-03 2.28473E-02
 -1       267 9.92910E-02-1.88385E-03 2.15342E-02
 -1       268 5.89160E-02-1.42548E-03 1.62935E-02
 -1       269 5.73676E-02-1.91852E-03 2.19309E-02
 -1       270 9.92603E-02-1.48550E-03 2.29302E-02
 -1       271 9.94729E-02-1.93740E-03 2.21458E-02
 -1       272 9.92925E-02-1.42280E-03 2.15745E-02
 -1       273 8.80533E-02-1.59781E-03 1.82652E-02
 -1       274 8.39502E-02-2.01079E-03 2.29846E-02
 -1       275 5.90595E-02-1.08199E-03 1.63760E-02
 -1       276 5.81654E-02-1.66509E-03 1.90330E-02
 -1       277 5.73689E-02-1.45033E-03 2.19631E-02
 -1       278 7.41302E-03 1.86394E-07 1.88493E-02
 -1       279 6.73122E-03 4.27339E-07 1.41368E-02
 -1       280 6.61328E-03-6.05904E-04 1.41917E-02
 -1       281 7.45085E-03-8.28108E-04 1.88278E-02
 -1       282 3.03068E-02 2.01843E-07 2.02845E-02
 -1       283 3.22419E-02 8.62973E-08 1.47774E-02
 -1       284 3.21460E-02-6.50374E-04 1.47236E-02
 -1       285 3.02852E-02-8.83640E-04 2.02737E-02
 -1       286 7.06771E-03 2.99514E-07 1.65696E-02
 -1       287 6.67092E-03-3.03197E-04 1.41673E-02
 -1       288 7.02807E-03-7.21979E-04 1.65918E-02
 -1       289 7.42696E-03-4.13586E-04 1.88429E-02
 -1       290 6.61604E-03-1.23869E-03 1.41594E-02
 -1       291 7.45987E-03-1.64122E-03 1.87620E-02
 -1       292 3.19877E-02-1.28472E-03 1.46873E-02
 -1       293 3.02782E-02-1.76980E-03 2.02310E-02
 -1       294 6.62591E-03-9.16738E-04 1.41700E-02
 -1       295 7.02883E-03-1.44723E-03 1.65439E-02
 -1       296 7.45521E-03-1.23568E-03 1.88041E-02
 -1       297 9.83012E-02-5.90761E-07 2.59574E-02
 -1       298 9.82999E-02-1.10763E-03 2.59406E-02
 -1       299 6.32813E-02-1.12198E-07 1.00385E-02
 -1       300 6.24064E-02-4.34746E-04 9.94787E-03
 -1       301 9.88706E-02 3.17262E-07 2.43923E-02
 -1       302 9.83019E-02-5.53277E-04 2.59552E-02
 -1       303 9.88747E-02-1.03026E-03 2.43479E-02
 -1       304 9.13776E-02 2.15981E-07 1.50329E-02
 -1       305 9.11538E-02-6.65213E-04 1.49246E-02
 -1       306 6.15367E-02 4.23280E-08 1.31999E-02
 -1       307 6.28571E-02-2.16841E-04 9.98316E-03
 -1       308 6.08443E-02-5.89949E-04 1.31963E-02
 -1       309 9.75801E-02-2.27043E-03 2.59553E-02
 -1       310 6.03459E-02-9.32927E-04 1.06685E-02
 -1       311 9.79263E-02-1.69309E-03 2.59564E-02
 -1       312 9.86563E-02-2.12530E-03 2.42938E-02
 -1       313 9.13415E-02-1.28309E-03 1.46651E-02
 -1       314 6.14345E-02-6.78377E-04 1.02509E-02
 -1       315 5.96559E-02-1.17282E-03 1.34080E-02
 -1       316 7.20987E-03-1.42818E-07 8.77648E-03
 -1       317 7.15296E-03-4.67347E-04 8.56577E-03
 -1       318 3.35484E-02 3.54118E-07 9.45353E-03
 -1       319 3.32398E-02-3.64948E-04 9.51796E-03
 -1       320 6.97084E-03 1.95957E-07 1.14535E-02
 -1       321 7.17528E-03-2.30680E-04 8.68616E-03
 -1       322 6.89323E-03-5.29519E-04 1.13569E-02
 -1       323 6.10030E-03-7.56329E-04 8.65096E-03
 -1       324 3.34364E-02-8.18007E-04 9.35022E-03
 -1       325 6.59860E-03-6.15200E-04 8.63150E-03
 -1       326 6.36483E-03-1.00276E-03 1.14652E-02
 -1       327 1.00000E-01 1.90211E-23-5.11042E-19
 -1       328 9.62190E-02 4.94466E-08-9.29117E-04
 -1       329 9.62269E-02 6.86144E-05-9.28686E-04
 -1       330 1.00000E-01 0.00000E+00 0.00000E+00
 -1       331 1.00000E-01 1.84081E-24-4.30715E-19
 -1       332 9.76584E-02 7.53760E-08-1.78346E-03
 -1       333 9.76563E-02 8.76295E-05-1.79451E-03
 -1       334 1.00000E-01 0.00000E+00 0.00000E+00
 -1       335 9.93785E-02 9.80251E-08-2.53381E-03
 -1       336 9.62226E-02 3.41685E-05-9.29142E-04
 -1       337 9.93740E-02 1.02700E-04-2.53351E-03
 -1       338 1.00000E-01 0.00000E+00 0.00000E+00
 -1       339 1.00000E-01 6.49779E-24-4.70647E-19
 -1       340 9.69248E-02-9.18599E-09-1.35212E-03
 -1       341 9.69267E-02 7.51004E-05-1.35425E-03
 -1       342 1.00000E-01 0.00000E+00 0.00000E+00
 -1       343 9.90092E-02 2.71343E-08-2.38564E-03
 -1       344 9.76581E-02 4.41260E-05-1.79035E-03
 -1       345 9.90109E-02 1.02991E-04-2.38166E-03
 -1       346 1.00000E-01 0.00000E+00 0.00000E+00
 -1       347 9.59022E-02 7.64398E-05-8.71967E-04
 -1       348 1.00000E-01 0.00000E+00 0.00000E+00
 -1       349 9.77598E-02 1.59513E-04-1.82243E-03
 -1       350 1.00000E-01 0.00000E+00 0.00000E+00
 -1       351 9.60680E-02 7.34796E-05-9.01513E-04
 -1       352 9.94553E-02 2.22121E-04-2.53869E-03
 -1       353 1.00000E-01 0.00000E+00 0.00000E+00
 -1       354 9.68096E-02 1.17751E-04-1.34445E-03
 -1       355 1.00000E-01 0.00000E+00 0.00000E+00
 -1       356 9.77063E-02 1.22037E-04-1.80824E-03
 -1       357 9.89878E-02 2.07214E-04-2.36776E-03
 -1       358 1.00000E-01 0.00000E+00 0.00000E+00
 -1       359 1.00000E-01 4.68807E-25-4.39225E-19
 -1       360 9.83311E-02 1.38079E-07-1.72115E-03
 -1       361 9.83585E-02 6.92086E-05-1.72783E-03
 -1       362 1.00000E-01 0.00000E+00 0.00000E+00
 -1       363 1.00000E-01 1.42338E-24-4.35482E-19
 -1       364 9.79753E-02 1.11521E-07-1.76151E-03
 -1       365 9.79884E-02 7.89911E-05-1.77121E-03
 -1       366 1.00000E-01 0.00000E+00 0.00000E+00
 -1       367 9.87196E-02 3.66311E-08-2.40838E-03
 -1       368 9.83445E-02 3.43252E-05-1.72472E-03
 -1       369 9.87122E-02 1.06433E-04-2.40365E-03
 -1       370 1.00000E-01 0.00000E+00 0.00000E+00
 -1       371 9.83477E-02 1.51246E-04-1.72807E-03
 -1       372 1.00000E-01 0.00000E+00 0.00000E+00
 -1       373 9.80399E-02 1.56302E-04-1.78591E-03
 -1       374 1.00000E-01 0.00000E+00 0.00000E+00
 -1       375 9.83539E-02 1.11413E-04-1.72917E-03
 -1       376 9.87099E-02 2.09378E-04-2.39269E-03
 -1       377 1.00000E-01 0.00000E+00 0.00000E+00
 -1       378 9.54757E-02-1.89801E-08 1.23511E-02
 -1       379 9.54723E-02-5.58223E-04 1.23416E-02
 -1       380 9.72199E-02 1.22105E-07 1.07840E-02
 -1       381 9.72202E-02-4.78843E-04 1.07845E-02
 -1       382 9.57155E-02-1.07277E-03 1.22622E-02
 -1       383 9.71394E-02-9.42981E-04 1.07793E-02
 -1       384 9.92927E-02 5.40082E-08 8.83605E-03
 -1       385 9.92728E-02-3.80873E-04 8.83319E-03
 -1       386 9.92865E-02-7.70514E-04 8.80856E-03
 -1       387 9.91393E-02-3.02634E-03 2.28298E-02
 -1       388 9.93005E-02-2.81294E-03 2.14380E-02
 -1       389 5.92530E-02-2.14759E-03 1.62781E-02
 -1       390 5.73691E-02-2.84867E-03 2.18385E-02
 -1       391 9.92603E-02-2.51877E-03 2.28397E-02
 -1       392 9.93842E-02-2.91305E-03 2.20864E-02
 -1       393 9.92925E-02-2.34486E-03 2.14938E-02
 -1       394 8.82973E-02-2.37698E-03 1.81117E-02
 -1       395 8.39786E-02-2.99608E-03 2.28604E-02
 -1       396 5.90595E-02-1.77804E-03 1.63150E-02
 -1       397 5.83188E-02-2.49266E-03 1.89876E-02
 -1       398 5.73690E-02-2.38514E-03 2.18814E-02
 -1       399 9.91383E-02-4.00293E-03 2.27033E-02
 -1       400 9.92462E-02-3.75718E-03 2.13091E-02
 -1       401 5.97416E-02-2.84650E-03 1.61458E-02
 -1       402 5.73387E-02-3.82761E-03 2.17081E-02
 -1       403 9.91357E-02-3.51494E-03 2.27758E-02
 -1       404 9.93583E-02-3.87115E-03 2.19555E-02
 -1       405 9.92746E-02-3.28690E-03 2.13764E-02
 -1       406 8.84116E-02-3.17440E-03 1.80025E-02
 -1       407 8.40341E-02-3.99805E-03 2.26750E-02
 -1       408 5.95009E-02-2.49654E-03 1.62118E-02
 -1       409 5.85472E-02-3.32490E-03 1.88581E-02
 -1       410 5.73642E-02-3.33674E-03 2.17772E-02
 -1       411 6.61334E-03-1.86733E-03 1.40811E-02
 -1       412 7.45106E-03-2.45334E-03 1.86856E-02
 -1       413 3.21460E-02-1.91581E-03 1.46130E-02
 -1       414 3.02851E-02-2.64995E-03 2.01192E-02
 -1       415 6.62594E-03-1.55752E-03 1.41138E-02
 -1       416 7.02821E-03-2.16968E-03 1.64650E-02
 -1       417 7.45532E-03-2.04788E-03 1.87330E-02
 -1       418 6.73119E-03-2.45440E-03 1.39221E-02
 -1       419 7.41299E-03-3.27296E-03 1.85630E-02
 -1       420 3.22418E-02-2.56598E-03 1.45529E-02
 -1       421 3.03068E-02-3.52216E-03 1.99764E-02
 -1       422 6.67095E-03-2.16096E-03 1.40047E-02
 -1       423 7.06768E-03-2.87698E-03 1.63179E-02
 -1       424 7.42704E-03-2.86426E-03 1.86285E-02
 -1       425 9.83002E-02-3.41304E-03 2.57385E-02
 -1       426 6.24067E-02-1.29896E-03 9.87160E-03
 -1       427 9.79265E-02-2.83909E-03 2.58551E-02
 -1       428 9.88749E-02-3.21328E-03 2.41563E-02
 -1       429 9.11535E-02-1.93633E-03 1.48140E-02
 -1       430 6.14346E-02-1.11140E-03 1.02130E-02
 -1       431 6.08445E-02-1.71020E-03 1.30980E-02
 -1       432 9.83012E-02-4.50808E-03 2.55629E-02
 -1       433 6.32813E-02-1.74329E-03 9.88600E-03
 -1       434 9.83020E-02-3.96205E-03 2.56538E-02
 -1       435 9.88706E-02-4.23539E-03 2.40218E-02
 -1       436 9.13776E-02-2.61023E-03 1.48045E-02
 -1       437 6.28573E-02-1.52011E-03 9.86978E-03
 -1       438 6.15367E-02-2.29210E-03 1.29993E-02
 -1       439 7.15305E-03-1.02672E-03 8.51713E-03
 -1       440 3.32398E-02-1.29301E-03 9.43670E-03
 -1       441 6.59866E-03-8.92220E-04 8.60725E-03
 -1       442 6.89329E-03-1.45028E-03 1.12763E-02
 -1       443 7.20983E-03-1.52416E-03 8.64312E-03
 -1       444 3.35484E-02-1.64124E-03 9.30997E-03
 -1       445 7.17528E-03-1.28098E-03 8.59390E-03
 -1       446 6.97081E-03-1.98869E-03 1.12796E-02
 -1       447 9.62271E-02 9.39357E-05-9.26945E-04
 -1       448 1.00000E-01 0.00000E+00 0.00000E+00
 -1       449 9.76563E-02 2.25454E-04-1.78246E-03
 -1       450 1.00000E-01 0.00000E+00 0.00000E+00
 -1       451 9.60680E-02 8.44238E-05-9.00575E-04
 -1       452 9.93740E-02 3.38847E-04-2.51285E-03
 -1       453 1.00000E-01 0.00000E+00 0.00000E+00
 -1       454 9.69268E-02 1.61451E-04-1.34691E-03
 -1       455 1.00000E-01 0.00000E+00 0.00000E+00
 -1       456 9.77063E-02 1.93961E-04-1.80200E-03
 -1       457 9.90109E-02 3.12226E-04-2.36326E-03
 -1       458 1.00000E-01 0.00000E+00 0.00000E+00
 -1       459 9.62190E-02 1.61390E-04-9.14993E-04
 -1       460 1.00000E-01 0.00000E+00 0.00000E+00
 -1       461 9.76584E-02 3.09773E-04-1.75637E-03
 -1       462 1.00000E-01 0.00000E+00 0.00000E+00
 -1       463 9.62227E-02 1.27786E-04-9.20611E-04
 -1       464 9.93785E-02 4.40092E-04-2.49530E-03
 -1       465 1.00000E-01 0.00000E+00 0.00000E+00
 -1       466 9.69248E-02 2.34786E-04-1.33158E-03
 -1       467 1.00000E-01 0.00000E+00 0.00000E+00
 -1       468 9.76581E-02 2.67596E-04-1.77090E-03
 -1       469 9.90092E-02 4.14290E-04-2.34939E-03
 -1       470 1.00000E-01 0.00000E+00 0.00000E+00
 -1       471 9.83585E-02 2.32022E-04-1.71359E-03
 -1       472 1.00000E-01 0.00000E+00 0.00000E+00
 -1       473 9.79884E-02 2.29927E-04-1.75803E-03
 -1       474 1.00000E-01 0.00000E+00 0.00000E+00
 -1       475 9.83539E-02 1.90681E-04-1.72220E-03
 -1       476 9.87122E-02 3.12649E-04-2.38561E-03
 -1       477 1.00000E-01 0.00000E+00 0.00000E+00
 -1       478 9.83311E-02 2.99010E-04-1.69498E-03
 -1       479 1.00000E-01 0.00000E+00 0.00000E+00
 -1       480 9.79753E-02 3.05996E-04-1.73474E-03
 -1       481 1.00000E-01 0.00000E+00 0.00000E+00
 -1       482 9.83445E-02 2.65886E-04-1.70442E-03
 -1       483 9.87196E-02 4.18246E-04-2.37179E-03
 -1       484 1.00000E-01 0.00000E+00 0.00000E+00
 -1       485 9.54722E-02-1.59314E-03 1.22515E-02
 -1       486 9.72202E-02-1.40088E-03 1.07037E-02
 -1       487 9.54757E-02-2.14479E-03 1.21635E-02
 -1       488 9.72198E-02-1.87250E-03 1.06202E-02
 -1       489 9.92728E-02-1.15852E-03 8.76519E-03
 -1       490 9.92927E-02-1.53431E-03 8.70182E-03
 -3
    1PSTEP                         8           1           3          
  100CL  103 3.000000000         490                     0    3           1
 -4  STRESS      6    1
 -5  SXX         1    4    1    1
 -5  SYY         1    4    2    2
 -5  SZZ         1    4    3    3
 -5  SXY         1    4    1    2
 -5  SYZ         1    4    2    3
 -5  SZX         1    4    3    1
 -1         1-1.49145E+03-1.73924E+03-3.97900E+03 3.99805E+00-3.44276E+00 7.58045E+02
 -1         2-2.86901E+02-3.30312E+02-8.61572E+02-6.28186E+00 3.44535E+00-1.85066E+02
 -1         3-2.87901E+02-3.38104E+02-8.65047E+02 3.71247E+00 2.30595E+01-1.83913E+02
 -1         4-1.49718E+03-1.74636E+03-3.97403E+03-3.33613E+01 9.68562E+01 7.58079E+02
 -1         5 2.32343E+02-1.60033E+03-2.52116E+03-7.95811E-01 1.29236E+00-2.35049E+01
 -1         6 1.87695E+02-8.16360E+02-1.56539E+03-7.40029E-01-5.47676E+00 3.44151E+02
 -1         7 1.88872E+02-8.23436E+02-1.57023E+03-7.84813E+00 3.01057E+01 3.42529E+02
 -1         8 3.09537E+02-1.59043E+03-2.48821E+03 3.01214E+01 3.59266E+01-3.22342E+01
 -1         9-7.57631E+02-9.72552E+02-2.34288E+03-1.10967E+00 4.66430E-02 2.76442E+02
 -1        10-2.85733E+02-3.30518E+02-8.61478E+02-1.96280E+00 1.45507E+01-1.84502E+02
 -1        11-7.62994E+02-9.80101E+02-2.34354E+03-1.28698E+01 5.96641E+01 2.78033E+02
 -1        12-1.49428E+03-1.74266E+03-3.97660E+03-1.42700E+01 4.53317E+01 7.57982E+02
 -1        13-6.00850E+02-1.69330E+03-3.32846E+03 2.25722E+00-4.21530E-01 2.91490E+02
 -1        14-3.77812E+01-5.44371E+02-1.14746E+03-3.55415E+00-3.35559E+00 8.37697E+01
 -1        15-3.46354E+01-5.45004E+02-1.14160E+03-3.35297E+00 2.41652E+01 8.16371E+01
 -1        16-5.73571E+02-1.69797E+03-3.31890E+03-1.30892E+00 6.80912E+01 2.88866E+02
 -1        17 1.75419E+02-1.22548E+03-2.04996E+03-6.58906E-03-1.51270E+00 1.68451E+02
 -1        18 1.89239E+02-8.16635E+02-1.56692E+03-1.46935E+00 1.06743E+01 3.43454E+02
 -1        19 1.82389E+02-1.22783E+03-2.04856E+03-1.55668E+01 4.06558E+01 1.67773E+02
 -1        20 2.72752E+02-1.58989E+03-2.50254E+03 1.48994E+01 1.93272E+01-2.77335E+01
 -1        21-2.88796E+02-3.48069E+02-8.63293E+02 1.57345E+01 4.54390E+01-1.79803E+02
 -1        22-1.50109E+03-1.76161E+03-3.96530E+03-6.62048E+01 1.94285E+02 7.55930E+02
 -1        23 1.40451E+02-8.61706E+02-1.59432E+03-2.98122E+01 6.47247E+01 3.41143E+02
 -1        24 3.27880E+02-1.60219E+03-2.48553E+03 2.49962E+00 7.77064E+01-2.88212E+01
 -1        25-2.90005E+02-3.46538E+02-8.66204E+02 8.92974E+00 3.17159E+01-1.81974E+02
 -1        26-7.66515E+02-9.91921E+02-2.33809E+03-2.42745E+01 1.18688E+02 2.77102E+02
 -1        27-1.49913E+03-1.75426E+03-3.96930E+03-4.91505E+01 1.48324E+02 7.57176E+02
 -1        28-5.23727E+01-5.63062E+02-1.14848E+03-7.25159E+00 5.17469E+01 8.29207E+01
 -1        29-5.65439E+02-1.70986E+03-3.30596E+03-2.54720E+01 1.40504E+02 2.91278E+02
 -1        30 1.63708E+02-8.46187E+02-1.58281E+03-2.41567E+01 5.11819E+01 3.41497E+02
 -1        31 1.97864E+02-1.22745E+03-2.04291E+03-1.47562E+01 7.18557E+01 1.68586E+02
 -1        32 3.16886E+02-1.60174E+03-2.48911E+03 1.34842E+01 5.54230E+01-3.09009E+01
 -1        33 1.40113E+01-1.61736E+03-1.70272E+03-1.24493E+01 6.34651E-01-2.64427E+01
 -1        34-2.46216E+02-1.29680E+03-1.42401E+03 5.66760E+00 1.40636E+01 9.59024E+01
 -1        35-3.42530E+02-1.29608E+03-1.42823E+03-3.31188E+01 1.11996E+01 1.05587E+02
 -1        36-1.39673E+02-1.65360E+03-1.76768E+03-4.77744E+01 6.50829E+00-2.58790E+01
 -1        37 9.44744E+01-1.58534E+03-2.03356E+03-7.27865E+00 3.09835E-01 5.08062E+01
 -1        38-4.10823E+01-1.08555E+03-1.56071E+03 2.50699E+00 6.63329E+00 2.15800E+02
 -1        39-9.17081E+01-1.09552E+03-1.57527E+03-1.91983E+01 2.30701E+01 2.21729E+02
 -1        40 6.46819E+01-1.59244E+03-2.04016E+03-9.13753E+00 1.95176E+01 4.49997E+01
 -1        41-8.14078E+01-1.42086E+03-1.57745E+03 8.15273E+00 7.65545E+00 5.79205E+01
 -1        42-2.99693E+02-1.31124E+03-1.43153E+03-2.73494E+01 1.92709E+01 9.99448E+01
 -1        43-7.18314E+01-1.41359E+03-1.56900E+03 9.67467E+00-8.48911E+00 5.54367E+01
 -1        44-6.75768E+01-1.65011E+03-1.74132E+03-3.16639E+01 1.82164E+00-2.60563E+01
 -1        45-1.53824E+02-1.16862E+03-1.29347E+03-7.50268E+00 1.00644E+01 8.50622E+01
 -1        46-1.20677E+02-1.62793E+03-1.73692E+03 3.42875E+00 1.04726E+01-3.79150E+01
 -1        47-2.84862E+01-1.05699E+03-1.52422E+03-1.84447E+01 4.07295E+01 2.10852E+02
 -1        48 8.24359E+01-1.58710E+03-2.03067E+03-3.41639E+00 3.95811E+01 3.89087E+01
 -1        49-2.42895E+02-1.21505E+03-1.35807E+03 9.38934E+00-1.04997E+01 9.75658E+01
 -1        50-1.01529E+02-1.42776E+03-1.54737E+03-4.14854E+00 1.06048E+01 4.81510E+01
 -1        51-1.25395E+02-1.62684E+03-1.74537E+03-1.68933E+01 1.44855E+01-3.16059E+01
 -1        52 3.70935E+02 8.66847E+02 1.74114E+03 1.03100E+01-1.28039E+01-9.03748E+01
 -1        53 3.52442E+02 8.56381E+02 1.73973E+03 1.17448E+01-4.16715E+01-8.24217E+01
 -1        54 1.14012E+02 1.66443E+02 1.74639E+02-5.63961E-01 9.88430E+00-3.57171E+01
 -1        55 8.95101E+01 1.71358E+02 1.84838E+02-2.19819E+01 1.93553E+01-2.66974E+01
 -1        56 9.76955E+01 2.15000E+02 4.08839E+02 8.17201E+00-1.02265E+01-1.36743E+02
 -1        57 3.63607E+02 8.66548E+02 1.74165E+03 1.08075E+01-3.36657E+01-8.63938E+01
 -1        58 1.10115E+02 2.14390E+02 4.25904E+02 1.29299E+01-1.06838E+01-1.44791E+02
 -1        59 1.88562E+02 4.94836E+02 9.06137E+02 3.18927E+00 4.81686E+00-4.56368E+01
 -1        60 1.78163E+02 4.88097E+02 8.90894E+02-4.20495E-01-1.48779E+01-4.46496E+01
 -1        61 2.19152E+02-2.86876E+02-6.27046E+02 9.29599E-01 6.05103E+00 1.33523E+02
 -1        62 9.74204E+01 1.58870E+02 1.75136E+02-1.28177E+01 1.07624E+01-3.14596E+01
 -1        63 2.24364E+02-2.80620E+02-6.15403E+02-3.97983E+00 2.53514E+01 1.38108E+02
 -1        64 3.86862E+02 8.71165E+02 1.74085E+03 9.80363E+00-7.66273E+01-1.12010E+02
 -1        65 7.68772E+01 2.00689E+02 1.43803E+02 1.62551E+00 5.20958E+00-1.89888E+01
 -1        66 3.67729E+02 8.57794E+02 1.74010E+03 1.45535E+01-4.68655E+01-9.69059E+01
 -1        67 9.97776E+01 1.99316E+02 4.03664E+02 1.26499E+01-1.79804E+01-1.44596E+02
 -1        68 2.28024E+02 5.31977E+02 9.23428E+02 4.33710E+00-3.43687E+01-4.96630E+01
 -1        69 8.75354E+01 1.93876E+02 1.71102E+02-1.48182E+01 2.85688E+01-2.31392E+01
 -1        70 2.59708E+02-2.62257E+02-6.34953E+02-1.22537E+01 3.30641E+01 1.40055E+02
 -1        71-4.59912E+02-1.08483E+03-1.85432E+03-1.22311E+00-1.31705E+01 3.98854E+02
 -1        72-2.68798E+02-1.08162E+03-1.85170E+03 3.34744E+01-5.22875E+01 3.50730E+02
 -1        73-1.19039E+02-4.37384E+02-7.88090E+02 7.90210E-01-7.91977E+00 1.64159E+02
 -1        74-4.68307E+01-4.29360E+02-7.62045E+02 1.04813E+00-1.27463E+01 1.52107E+02
 -1        75-4.97943E+02-1.22837E+03-1.67961E+03-1.25264E+01-9.52530E+00 3.10104E+02
 -1        76-3.50302E+02-1.04850E+03-1.83649E+03 2.98446E+01-1.40141E+01 3.75761E+02
 -1        77-4.68394E+02-1.23259E+03-1.69064E+03-3.84214E+01-1.69371E+01 2.95171E+02
 -1        78-5.17619E+02-1.18366E+03-1.77288E+03-3.95957E+01 5.09732E+01 4.53093E+02
 -1        79-2.16525E+02-4.87535E+02-7.95641E+02-1.76076E+01 2.67512E+01 2.01216E+02
 -1        80-4.07282E+02-1.16010E+03-1.83615E+03-9.46032E+00-6.08706E+01 4.01559E+02
 -1        81-6.84005E+02-1.27058E+03-1.62851E+03-3.05279E+01 3.04546E+01 3.48636E+02
 -1        82 6.59079E+01-5.72692E+02-1.09360E+02 6.67414E+00-7.44994E+00-4.45169E+01
 -1        83-2.38421E+01-4.48972E+01-1.43856E+02-2.27587E+00 2.09618E+00 1.52086E+02
 -1        84 5.33423E+00-4.57789E+01-1.44102E+02-3.20832E+01 1.78069E+01 1.27408E+02
 -1        85-2.88169E+00-5.56000E+02-1.00607E+02 9.16633E+00 5.88240E+00 2.42785E+01
 -1        86-2.37519E+01-8.61854E+02-9.37893E+02-5.13440E+00 1.33003E+00 7.94212E+01
 -1        87-5.49932E+01 1.41884E+01-9.32199E+01 2.28645E+00-4.70366E+00 1.02536E+02
 -1        88-5.74162E+01-1.85769E+00-9.96152E+01-3.64855E+00 6.66599E+00 1.01017E+02
 -1        89-5.17384E+01-8.24274E+02-9.23724E+02-9.26644E-01 9.56493E-02 9.44269E+01
 -1        90 2.13715E+01-3.05257E+02-1.27287E+02 4.58089E-02 2.50745E+00 5.85867E+01
 -1        91-8.92627E+00-4.81404E+01-1.45374E+02-1.36891E+01 8.69935E+00 1.39524E+02
 -1        92 2.50878E+01-2.90014E+02-1.13955E+02-1.49986E+01 9.48111E+00 5.91101E+01
 -1        93 4.05806E+01-5.60267E+02-1.00541E+02 6.52245E+00-7.51890E+00-1.33115E+01
 -1        94 9.20742E+00-8.71167E+01-1.92204E+02-1.46199E+01 9.21976E+00 1.67167E+02
 -1        95 2.59955E+02-4.42691E+02 1.08163E+02 2.51538E+01-4.83255E+01-2.87519E+02
 -1        96-1.86234E+01 4.84429E+00-7.13634E+01-7.42873E+00 6.76430E+00 8.48668E+01
 -1        97-1.34004E+02-8.68192E+02-1.01979E+03-1.28794E+01 1.30721E+01 1.47311E+02
 -1        98 6.94251E+00-6.01478E+01-1.70257E+02-1.06562E+01-5.07419E+00 1.48933E+02
 -1        99 1.45359E+02-2.64881E+02-4.01983E+01 3.53164E+00-1.97083E+01-4.03275E+01
 -1       100 1.19468E+02-5.20380E+02 1.62885E+01-6.96979E+01 8.16648E+01-1.36137E+02
 -1       101 2.25159E+01-3.11183E+02 8.29433E+01-1.19572E+01 5.24357E+00 1.15182E+01
 -1       102-5.59729E+01 5.16159E+00 4.10892E+01 5.91738E+00-5.55737E+00-3.32265E+01
 -1       103-7.87582E+01 2.66110E-01 5.34706E+01 1.44545E+01-2.79363E+01-6.43557E+00
 -1       104 8.84189E+01-2.81228E+02 1.17006E+02-1.20542E+01 2.13834E+01-3.40537E+01
 -1       105-1.88544E+01-4.07508E+02-2.62094E+00 8.42344E+00-3.07797E+00-4.66798E+00
 -1       106 2.64726E+01 5.76316E+00-4.41112E+00-4.22855E+00 4.53654E+00 2.76428E+01
 -1       107 4.97687E+01 1.73678E+01 1.67122E+01-1.64301E+01-1.41007E+00 1.70056E+01
 -1       108-4.78733E+01-4.30664E+02-2.25087E+01 9.28096E+00 4.07084E+00 5.59486E+00
 -1       109-4.97517E+00-1.46408E+02 6.93124E+01-1.89043E+00-3.61766E+00-2.34448E+01
 -1       110-6.65161E+01 7.04691E+00 4.92908E+01 3.95385E+00-1.00725E+01-1.94366E+01
 -1       111 1.98010E+01-1.31626E+02 9.64637E+01 7.40160E+00-6.86553E+00-2.73971E+01
 -1       112 4.07643E+01-3.17944E+02 8.80939E+01 4.34615E+00 6.87823E-01-7.70563E+00
 -1       113 7.49968E+01 8.87047E+01 2.83620E+02 5.56265E+00-1.71661E+01-6.36391E+01
 -1       114-3.96266E+02-5.28165E+02-5.44740E+02-2.72389E+01 1.37213E+00 3.11416E+02
 -1       115-1.09745E+01-2.00175E+01 5.55313E+00-4.33689E+00-2.25989E+00 4.95830E+01
 -1       116 2.49579E+02-3.06485E+02 9.66415E+01 1.37063E+01-3.54969E+01-1.56711E+02
 -1       117-2.73073E+00 4.09335E+01 1.65751E+02 2.02195E+01-3.36680E+01-3.50873E+01
 -1       118-7.65426E+01-1.80323E+02-8.37021E+01-8.32911E+00-8.55433E+00 9.52094E+01
 -1       119-1.39222E+02-3.79952E+02-2.05000E+02-1.89698E+01 6.94996E+00 1.36600E+02
 -1       120-5.89637E+00 7.44755E+02 4.04414E+02-5.23289E-01 3.21130E+00 4.44555E+01
 -1       121 4.43378E+00 7.49499E+02 4.06934E+02 4.44699E+00 8.27682E+00 3.05676E+01
 -1       122 5.51080E+01 8.70887E+02 1.14509E+03 3.12008E+00 2.02919E+00-4.32750E+01
 -1       123 7.12079E+01 8.83309E+02 1.15058E+03 1.19641E+00-1.27288E+01-4.14226E+01
 -1       124-1.52078E+01 3.46391E+02 1.30958E+02 7.53743E-01-2.53059E+00 9.34683E+01
 -1       125-8.44363E-01 7.51267E+02 4.07585E+02-6.75724E-01 1.03390E+01 3.83616E+01
 -1       126-1.89775E+01 3.40984E+02 1.23016E+02-1.02779E+01 1.54054E+01 9.57206E+01
 -1       127-1.80489E+01 7.48050E+02 4.11829E+02-4.77041E+00 2.96326E+01 5.44940E+01
 -1       128 7.85578E+01 8.98299E+02 1.15220E+03 3.48171E+00-2.23695E+01-3.97440E+01
 -1       129-6.69384E+00 7.43764E+02 4.08342E+02-3.04316E+00 1.93006E+01 4.11955E+01
 -1       130-1.51989E+01 3.30444E+02 1.07990E+02-7.95987E+00 1.95816E+01 9.09818E+01
 -1       131 5.75615E+01 2.72814E+02-1.77226E+02 4.53469E+00-2.30731E+00-4.19746E+01
 -1       132 9.13839E+01 2.77860E+02-1.55912E+02-7.59407E+00 3.34925E+01-4.60968E+01
 -1       133-3.39787E+01 4.34739E+02-5.18302E+00-2.41121E+00-8.71641E-01 3.06257E+01
 -1       134-5.22535E+01 4.15926E+02-1.63036E+01-1.82990E+00 1.85878E+01 2.84048E+01
 -1       135-1.09591E+01 1.32385E+02-7.53646E+01 4.09655E+00-4.71576E-01-2.50099E+01
 -1       136 7.41866E+01 2.71970E+02-1.67990E+02 1.21395E+00 1.17237E+01-4.52075E+01
 -1       137-8.65781E+00 1.30208E+02-6.24462E+01-2.77126E+00 6.36718E+00-1.91137E+01
 -1       138 7.69682E+01 2.46519E+02-2.18414E+02 3.96968E+00 4.09934E+01-4.53526E+01
 -1       139-4.38643E+01 4.07906E+02-2.02432E+01-2.20699E+00 3.77454E+01 2.52084E+01
 -1       140 8.44628E+01 2.65429E+02-1.85612E+02-3.09232E+00 4.18493E+01-4.44236E+01
 -1       141-8.10978E+00 1.28205E+02-1.42548E+01 2.25717E+00 1.25710E+01-2.58168E+01
 -1       142-2.87979E+02-3.46347E+02-8.57146E+02 2.82845E+01 6.84758E+01-1.81777E+02
 -1       143-1.49745E+03-1.78109E+03-3.94032E+03-9.87835E+01 2.89977E+02 7.52417E+02
 -1       144 1.88828E+02-8.35906E+02-1.55775E+03-5.17547E+01 9.97250E+01 3.38739E+02
 -1       145 3.09673E+02-1.60531E+03-2.47376E+03-2.39879E+01 1.20280E+02-3.73014E+01
 -1       146-2.90025E+02-3.51426E+02-8.61421E+02 2.28166E+01 5.90533E+01-1.80766E+02
 -1       147-7.63135E+02-1.00125E+03-2.32301E+03-3.55987E+01 1.77127E+02 2.76056E+02
 -1       148-1.49930E+03-1.77081E+03-3.95341E+03-8.32094E+01 2.39471E+02 7.54224E+02
 -1       149-3.46895E+01-5.54782E+02-1.13187E+03-1.08760E+01 7.95808E+01 8.10432E+01
 -1       150-5.73466E+02-1.72360E+03-3.29309E+03-4.88398E+01 2.13517E+02 2.84541E+02
 -1       151 1.63678E+02-8.50943E+02-1.57807E+03-3.54696E+01 7.77502E+01 3.40547E+02
 -1       152 1.82440E+02-1.23888E+03-2.03786E+03-1.38132E+01 1.02575E+02 1.67878E+02
 -1       153 3.16968E+02-1.60949E+03-2.48152E+03-7.92853E+00 1.00021E+02-3.29171E+01
 -1       154-2.87114E+02-3.45572E+02-8.47031E+02 3.83231E+01 8.75447E+01-1.81164E+02
 -1       155-1.49183E+03-1.80882E+03-3.91073E+03-1.35392E+02 3.86195E+02 7.45877E+02
 -1       156 1.87699E+02-8.40696E+02-1.54107E+03-5.91119E+01 1.32252E+02 3.39054E+02
 -1       157 2.32423E+02-1.62739E+03-2.49390E+03 4.85105E+00 1.55682E+02-2.29918E+01
 -1       158-2.85921E+02-3.41980E+02-8.50684E+02 3.39685E+01 7.71493E+01-1.81366E+02
 -1       159-7.57928E+02-1.01450E+03-2.30195E+03-4.68271E+01 2.34237E+02 2.72455E+02
 -1       160-1.49465E+03-1.79537E+03-3.92520E+03-1.17417E+02 3.39367E+02 7.49006E+02
 -1       161-3.77647E+01-5.63375E+02-1.12842E+03-1.10586E+01 1.05580E+02 8.31203E+01
 -1       162-6.00859E+02-1.74270E+03-3.27913E+03-5.28525E+01 2.79799E+02 2.86681E+02
 -1       163 1.89222E+02-8.35811E+02-1.54774E+03-5.82454E+01 1.18336E+02 3.38515E+02
 -1       164 1.75453E+02-1.25067E+03-2.02469E+03-2.92025E+01 1.41657E+02 1.65930E+02
 -1       165 2.72866E+02-1.61068E+03-2.48185E+03-9.79428E+00 1.37629E+02-3.00537E+01
 -1       166-3.42193E+02-1.29510E+03-1.42819E+03 1.42988E+01 1.02289E+01 1.09419E+02
 -1       167-1.39629E+02-1.65381E+03-1.76395E+03 5.12837E+01 1.06101E+01-1.59108E+01
 -1       168-9.15688E+01-1.10185E+03-1.56855E+03-1.95871E+01 5.94966E+01 2.21516E+02
 -1       169 6.46011E+01-1.59916E+03-2.03281E+03 1.10204E+00 5.70565E+01 4.64108E+01
 -1       170-2.42716E+02-1.22283E+03-1.34978E+03-2.62660E+01 3.45707E+01 9.42020E+01
 -1       171-7.17272E+01-1.42006E+03-1.56021E+03-1.90962E+01 3.22138E+01 5.30972E+01
 -1       172-1.25496E+02-1.62501E+03-1.74589E+03 2.22439E+01 4.96655E+00-2.76762E+01
 -1       173-2.45806E+02-1.29697E+03-1.42229E+03-2.20431E+01 1.39347E+01 9.34148E+01
 -1       174 1.41051E+01-1.62046E+03-1.69903E+03 1.68144E+01 1.70335E+01-2.41211E+01
 -1       175-4.09967E+01-1.09859E+03-1.54731E+03-3.99132E+01 7.74114E+01 2.12060E+02
 -1       176 9.44169E+01-1.59932E+03-2.01965E+03-1.58536E+00 7.74965E+01 5.12056E+01
 -1       177-2.99254E+02-1.30757E+03-1.43367E+03 9.71563E+00 2.15018E+00 1.03014E+02
 -1       178-8.11057E+01-1.42374E+03-1.57329E+03-1.83196E+01 2.36726E+01 5.53588E+01
 -1       179-6.74527E+01-1.65228E+03-1.73684E+03 3.54339E+01 1.51514E+01-1.96483E+01
 -1       180 3.52407E+02 8.68766E+02 1.72731E+03 2.74982E+00-1.11861E+02-8.32159E+01
 -1       181 8.95685E+01 1.78198E+02 1.77983E+02 2.62497E+01-2.02388E+01-2.24162E+01
 -1       182 3.67725E+02 8.68394E+02 1.72952E+03 2.49721E+00-1.06782E+02-9.79666E+01
 -1       183 1.10037E+02 2.16984E+02 4.23066E+02 1.24066E+01-2.60822E+01-1.44829E+02
 -1       184 1.78163E+02 4.95072E+02 8.83880E+02 8.16654E+00-5.47241E+01-4.38979E+01
 -1       185 8.75622E+01 2.02934E+02 1.62035E+02 1.85570E+01-2.30391E+01-2.01821E+01
 -1       186 2.24388E+02-2.82258E+02-6.13653E+02-2.00524E+01 3.37101E+01 1.36654E+02
 -1       187 3.70933E+02 8.88888E+02 1.71910E+03 5.53440E+00-1.37575E+02-9.08145E+01
 -1       188 1.13996E+02 1.70262E+02 1.70774E+02 6.85583E+00-1.16504E+01-3.49982E+01
 -1       189 3.63584E+02 8.81442E+02 1.72673E+03 4.36217E+00-1.18036E+02-8.69760E+01
 -1       190 9.75875E+01 2.17183E+02 4.06300E+02 1.57032E+01-2.36279E+01-1.36081E+02
 -1       191 1.88545E+02 5.09066E+02 8.91853E+02 4.81005E+00-7.54594E+01-4.55258E+01
 -1       192 9.74417E+01 1.62917E+02 1.71056E+02 1.81180E+01-1.28490E+01-2.86790E+01
 -1       193 2.19152E+02-2.94895E+02-6.19043E+02-2.41214E+01 5.14024E+01 1.31326E+02
 -1       194-2.68912E+02-1.12216E+03-1.81122E+03-9.38056E+01 1.79488E+02 3.39750E+02
 -1       195-4.68467E+01-4.43571E+02-7.47852E+02-2.74448E+01 6.82986E+01 1.49749E+02
 -1       196-4.07322E+02-1.20132E+03-1.79490E+03-6.03320E+01 1.73044E+02 3.97194E+02
 -1       197-4.68261E+02-1.25137E+03-1.67151E+03-1.34871E+01 9.26018E+01 2.97639E+02
 -1       198-4.59728E+02-1.11375E+03-1.82485E+03-6.83023E+01 1.48546E+02 3.93234E+02
 -1       199-1.18946E+02-4.51233E+02-7.73956E+02-2.93382E+01 6.92947E+01 1.61738E+02
 -1       200-3.50243E+02-1.07682E+03-1.80785E+03-9.47419E+01 1.47701E+02 3.65104E+02
 -1       201-4.97614E+02-1.24654E+03-1.66030E+03-4.13696E+01 9.14577E+01 3.07653E+02
 -1       202 5.32335E+00-4.26180E+01-1.47275E+02 9.47416E+00 2.64630E-02 1.31032E+02
 -1       203-2.87863E+00-5.40384E+02-1.16255E+02-1.32244E+01-8.30902E+01 2.23020E+01
 -1       204-5.74021E+01-2.56554E+00-9.89084E+01-1.39521E+01 1.05355E+01 1.00154E+02
 -1       205-5.17507E+01-8.27039E+02-9.20960E+02-1.54888E+01 1.65172E+01 9.31867E+01
 -1       206 6.93850E+00-6.52062E+01-1.65205E+02-1.53617E+01 2.36300E+01 1.48510E+02
 -1       207 2.50784E+01-2.81505E+02-1.22482E+02 4.52154E+00-3.88835E+01 6.07983E+01
 -1       208 1.19475E+02-4.76237E+02-2.78560E+01 9.22863E+01-1.68593E+02-1.21984E+02
 -1       209-2.38369E+01-4.72254E+01-1.41508E+02-2.41698E+01 1.51622E+01 1.50112E+02
 -1       210 6.58860E+01-5.60903E+02-1.21192E+02 1.14891E+00-7.33076E+01-4.51068E+01
 -1       211-5.49935E+01 9.41324E+00-8.84307E+01-2.00631E+01 2.25270E+01 1.00612E+02
 -1       212-2.37620E+01-8.64099E+02-9.35734E+02-8.77784E+00 1.31993E+01 7.93084E+01
 -1       213-8.92927E+00-4.80805E+01-1.45427E+02-1.07448E+01 8.42720E+00 1.39738E+02
 -1       214 2.13696E+01-2.98859E+02-1.33671E+02-1.02239E+01-3.32336E+01 5.75689E+01
 -1       215 4.05679E+01-5.48987E+02-1.11867E+02-4.10352E+00-7.14651E+01-1.43174E+01
 -1       216-7.87358E+01-7.69915E+00 6.14540E+01-1.31239E+01 1.71812E+01-8.85233E+00
 -1       217 8.83895E+01-2.61835E+02 9.75814E+01 1.77980E+01-8.83209E+01-3.14206E+01
 -1       218 4.97619E+01 1.68726E+01 1.72188E+01 1.32309E+01 1.42266E+00 1.95916E+01
 -1       219-4.78646E+01-4.17005E+02-3.61666E+01-1.01183E+01-7.35620E+01 3.88278E+00
 -1       220-2.71739E+00 3.31893E+01 1.73512E+02-1.38252E+01 1.02803E+01-3.80639E+01
 -1       221 1.98040E+01-1.27068E+02 9.19021E+01-2.52858E+00-3.26029E+01-2.82615E+01
 -1       222-1.39239E+02-3.72304E+02-2.12669E+02-5.02519E+00-3.64197E+01 1.37840E+02
 -1       223-5.59765E+01 4.38121E+00 4.18679E+01-4.51798E-02-1.00433E+00-3.37180E+01
 -1       224 2.25397E+01-2.97633E+02 6.94877E+01 9.72785E+00-7.19032E+01 1.34782E+01
 -1       225 2.64692E+01 6.99309E+00-5.65783E+00-6.35884E-01-2.48449E+00 2.79456E+01
 -1       226-1.88436E+01-3.96291E+02-1.37894E+01-7.45835E+00-6.65910E+01-6.09934E+00
 -1       227-6.65078E+01 4.87330E+00 5.14690E+01-5.18883E-01 2.25814E+00-1.98115E+01
 -1       228-4.96781E+00-1.41190E+02 6.41342E+01 5.91377E+00-3.33195E+01-2.26968E+01
 -1       229 4.07668E+01-3.05436E+02 7.56378E+01-2.96084E+00-7.01133E+01-8.29475E+00
 -1       230 4.44777E+00 7.42005E+02 4.14440E+02-9.69013E+00 5.07957E+01 2.93290E+01
 -1       231 7.11907E+01 8.87004E+02 1.14687E+03 6.01732E+00-3.37421E+01-4.10080E+01
 -1       232-6.68898E+00 7.40252E+02 4.11855E+02-4.15837E+00 3.92087E+01 4.10996E+01
 -1       233-1.89705E+01 3.39697E+02 1.24300E+02-6.50464E+00 2.27627E+01 9.60488E+01
 -1       234-5.89548E+00 7.35582E+02 4.13587E+02-7.19896E+00 5.52149E+01 4.38913E+01
 -1       235 5.50978E+01 8.79846E+02 1.13611E+03 4.43834E+00-4.88271E+01-4.31725E+01
 -1       236-8.36134E-01 7.44440E+02 4.14421E+02-5.99743E+00 4.90699E+01 3.79073E+01
 -1       237-1.52113E+01 3.38974E+02 1.38361E+02-1.69709E+01 3.93494E+01 9.19352E+01
 -1       238 9.13786E+01 2.76228E+02-1.54285E+02 1.54850E+01 4.27048E+01-4.40723E+01
 -1       239-5.22508E+01 4.09251E+02-9.63257E+00-3.13040E+00 5.64481E+01 2.82898E+01
 -1       240 8.44590E+01 2.66134E+02-1.86324E+02 1.07606E+01 3.78104E+01-4.32104E+01
 -1       241-8.65574E+00 1.26565E+02-5.88000E+01 6.04616E+00 2.69760E+01-1.83373E+01
 -1       242 5.75548E+01 2.58445E+02-1.62878E+02 2.81908E+00 7.91152E+01-4.21343E+01
 -1       243-3.39743E+01 4.21179E+02 8.38510E+00-2.94243E+00 7.60573E+01 3.05837E+01
 -1       244 7.41805E+01 2.62704E+02-1.58738E+02 6.65518E+00 6.42113E+01-4.47347E+01
 -1       245-1.09614E+01 1.25978E+02-6.89613E+01 3.14511E-01 3.59211E+01-2.53492E+01
 -1       246 1.16744E+03 2.75133E+03 1.46798E+03-6.01513E+00 1.66984E+00-9.31669E+02
 -1       247-9.12353E+01 1.86818E+03-8.60861E+02 1.34298E+00 1.94131E+00 4.56990E+01
 -1       248-1.01474E+02 1.84310E+03-8.42104E+02-4.93243E+01 1.29836E+02 5.76910E+01
 -1       249 1.15053E+03 2.77191E+03 1.47273E+03 5.25965E+01 4.35146E+01-9.23246E+02
 -1       250-2.56750E+02 1.09999E+03-3.67088E+02-8.97530E+00 2.35757E+00 2.16156E+02
 -1       251 1.75455E+01 8.70897E+02-9.82209E+01 1.07254E+01-3.89038E+00-1.48989E+02
 -1       252 4.35954E+01 8.88081E+02-1.03233E+02 6.87579E+01 1.25338E+01-1.75723E+02
 -1       253-2.47193E+02 1.05015E+03-3.82012E+02-5.22339E+00 7.02924E+01 2.15608E+02
 -1       254 3.89990E+02 2.23772E+03 1.95314E+02-1.42111E+00-1.87619E-02-2.51793E+02
 -1       255-9.77571E+01 1.85541E+03-8.52325E+02-1.32773E+01 6.84916E+01 5.23025E+01
 -1       256 3.59970E+02 2.22277E+03 1.93171E+02-1.80348E+00 8.93842E+01-2.40167E+02
 -1       257 1.15930E+03 2.75905E+03 1.46859E+03 1.82131E+01 2.25797E+01-9.27574E+02
 -1       258 2.41055E+02 1.94405E+03 7.06228E+02 9.17996E-01-3.56670E+00-3.07984E+02
 -1       259 8.16801E+01 1.29744E+03-5.64816E+02 3.65695E+00-2.87611E+00-1.18264E+02
 -1       260 8.44201E+01 1.29950E+03-5.46129E+02 2.77213E+01 6.03610E+01-1.29530E+02
 -1       261 2.25102E+02 1.91403E+03 6.92477E+02 2.67776E+01 4.76712E+01-3.02758E+02
 -1       262-5.27608E+01 1.00832E+03-2.05011E+02-1.15066E-01 2.35693E+00-2.10367E+01
 -1       263 3.46361E+01 8.71492E+02-1.00760E+02 2.70929E+01 8.85517E+00-1.65002E+02
 -1       264-4.46095E+01 9.93687E+02-2.17462E+02 3.02531E+01 3.92322E+01-2.11256E+01
 -1       265-2.51639E+02 1.08761E+03-3.71424E+02-4.25152E-01 3.13455E+01 2.19192E+02
 -1       266-2.00408E+02 1.89048E+03-8.36402E+02-6.33033E+00 2.40321E+02 7.32439E+01
 -1       267 1.13177E+03 2.68932E+03 1.47596E+03 8.02055E+01 1.07061E+02-9.17366E+02
 -1       268 1.21791E+02 7.83928E+02-1.26978E+02 1.38206E+01 8.03531E+01-1.58083E+02
 -1       269-2.53280E+02 1.04106E+03-3.76392E+02-1.97710E+01 1.24924E+02 2.26165E+02
 -1       270-1.49523E+02 1.86760E+03-8.38944E+02-4.94507E+01 1.79521E+02 6.38905E+01
 -1       271 3.45948E+02 2.23100E+03 2.51634E+02 2.34746E+01 1.74539E+02-2.68028E+02
 -1       272 1.14081E+03 2.73300E+03 1.47621E+03 7.36960E+01 7.58160E+01-9.19980E+02
 -1       273 5.25126E+01 1.25288E+03-5.49060E+02 1.04173E+01 1.58810E+02-1.18466E+02
 -1       274 2.49527E+02 1.87674E+03 6.94917E+02 2.65126E+01 1.04232E+02-3.03622E+02
 -1       275 7.86200E+01 8.38735E+02-1.09825E+02 4.11318E+01 7.17058E+01-1.65366E+02
 -1       276-2.33310E+01 9.34655E+02-2.32380E+02 1.54675E+00 1.02893E+02-1.77319E+01
 -1       277-2.50553E+02 1.03465E+03-3.83867E+02-1.50252E+01 9.37759E+01 2.17928E+02
 -1       278-9.73263E+01 6.71645E+02-2.01570E+02 9.10221E+00-5.59478E+00 1.56129E+01
 -1       279 1.14549E+02 6.53946E+02 1.94852E+02-5.30646E+00-7.73981E-01-1.19704E+01
 -1       280 1.06879E+02 6.57699E+02 2.46795E+02-1.41609E+01 1.97282E+01-9.79326E+00
 -1       281-1.17674E+02 6.70223E+02-2.15647E+02 6.89721E-02 2.73999E+01 2.06383E+01
 -1       282 5.76221E+01 9.78964E+02-1.64087E+02-3.91475E+00 5.04766E-01-6.59203E+00
 -1       283-6.68206E+01 6.89482E+02-1.33148E+02 1.38337E+00 3.10696E+00 1.42060E+01
 -1       284-5.92752E+01 6.92306E+02-1.29265E+02 1.05963E+01 2.79550E+01 1.06367E+01
 -1       285 6.98570E+01 9.69954E+02-1.56629E+02-4.00421E-02 4.97380E+01-1.15576E+01
 -1       286-8.94363E+00 6.59197E+02-5.37961E+00 3.22087E+00-5.02170E+00 3.18061E+01
 -1       287 1.08640E+02 6.58082E+02 2.21735E+02-7.60349E+00 1.07354E+01-1.09373E+01
 -1       288-6.44494E+00 6.65821E+02 2.22360E+01-8.58171E+00 2.49114E+01 1.98937E+01
 -1       289-1.06875E+02 6.67865E+02-2.09413E+02 2.72520E+00 1.20517E+01 1.66841E+01
 -1       290 3.71728E+01 6.68585E+02 2.32213E+02 1.66785E+00 3.83983E+01-1.89678E+01
 -1       291-7.47727E+01 6.78833E+02-2.07550E+02-9.70217E-01 7.81881E+01 1.08874E+01
 -1       292-1.58069E+01 6.79422E+02-9.81551E+01 1.36385E-01 6.85662E+01-1.66466E+00
 -1       293 4.33560E+01 9.55379E+02-1.59581E+02 3.91646E-01 9.82932E+01-4.35016E+00
 -1       294 7.40995E+01 6.64262E+02 2.35211E+02 2.00964E+00 8.63803E+00-1.34217E+01
 -1       295 1.02750E+00 6.81979E+02 2.23402E+01-1.17131E+00 5.81383E+01 1.33604E+01
 -1       296-9.68561E+01 6.77098E+02-2.10313E+02 1.00389E+00 5.43964E+01 1.71760E+01
 -1       297-4.81576E+02 1.59371E+03-2.52316E+03 2.22041E+00 2.73929E-01 4.03849E+02
 -1       298-4.19454E+02 1.63006E+03-2.52614E+03 3.26749E+01 2.39605E+02 3.88838E+02
 -1       299 9.40428E+01 4.22825E+02-1.94599E+02-1.04288E+01 3.02958E+00-1.59665E+02
 -1       300-1.02913E+01 4.17708E+02-1.65719E+02-3.11172E+01-1.63772E+01-8.13913E+01
 -1       301-1.38292E+02 1.80298E+03-1.58376E+03 8.66724E-01 2.93196E+00 3.35814E+01
 -1       302-4.57160E+02 1.60206E+03-2.53050E+03 5.47976E+00 9.66480E+01 3.94405E+02
 -1       303-9.59039E+01 1.82131E+03-1.56198E+03-4.88514E+00 1.82012E+02 3.06540E+01
 -1       304-1.87778E+02 6.42123E+02-2.07320E+03-1.22132E+01 1.47315E+01 1.59207E+02
 -1       305-2.01919E+02 6.31450E+02-2.05562E+03-2.02400E+01 1.41702E+02 1.77107E+02
 -1       306-1.10473E+01 6.23985E+02-1.74053E+02 1.13848E+00-3.55374E+00-9.97071E+01
 -1       307 6.10097E+01 4.21743E+02-1.74841E+02-8.21957E+00-3.65138E+00-1.26206E+02
 -1       308-4.05372E+01 6.28324E+02-1.59636E+02 2.03345E+01 2.59206E-01-8.74893E+01
 -1       309-6.26411E+02 1.46172E+03-2.68868E+03-6.07285E+01 3.67120E+02 6.92723E+02
 -1       310 4.96932E+02 6.44372E+02 8.34712E+01 4.15536E+01 4.91336E+01-4.74843E+02
 -1       311-5.16315E+02 1.54782E+03-2.59381E+03-7.21350E+00 3.71542E+02 5.42226E+02
 -1       312-2.93676E+02 1.73500E+03-1.69439E+03-2.00664E+01 3.02872E+02 2.28950E+02
 -1       313-3.31064E+01 6.93499E+02-1.86715E+03-2.99636E+00 2.26116E+02 3.39705E+01
 -1       314 2.24156E+02 5.55997E+02-7.29380E+01 1.12133E+02-1.36790E+02-2.61948E+02
 -1       315 2.66947E+02 6.91992E+02-4.10582E+01 2.31652E+01 6.44893E+01-2.64690E+02
 -1       316-1.23557E+02 2.88391E+02-1.49388E+02-3.51419E+00 8.57408E+00 5.72660E+01
 -1       317-1.21927E+02 2.30450E+02-3.03862E+02 2.28046E+01 4.92584E+01 3.68059E+01
 -1       318 7.21110E+01 4.66287E+02-8.65063E+00 3.43121E+00-8.24122E+00-3.53827E+01
 -1       319 6.49825E+01 4.90095E+02-2.36596E+01-1.53531E+01 1.72105E+01-1.18783E+01
 -1       320 1.30508E+01 4.74766E+02 2.47529E+01-5.73332E+00 5.73737E+00-7.33709E+00
 -1       321-1.24437E+02 2.78793E+02-2.22344E+02 5.29836E-01 2.87003E+01 4.86453E+01
 -1       322-6.47712E+00 4.42214E+02-3.51948E+01 5.85756E+00 3.31459E+01-9.64848E-01
 -1       323-1.67001E+01 3.13555E+02-1.34571E+00 5.35998E-01 2.79258E+01-6.17456E+00
 -1       324 2.33967E+01 4.56420E+02-1.15743E+02 1.72335E+00 5.03956E+01-1.96320E+01
 -1       325-6.76116E+01 2.40899E+02-1.45141E+02-2.94507E+01 1.05343E+02 9.29227E+00
 -1       326-9.59108E+00 4.82800E+02 1.05425E+02 2.62205E+00 3.33169E+01-2.99718E+01
 -1       327 7.82047E+00 1.58772E+01 4.15229E+02 5.17675E+00-1.32254E-01-2.98360E+01
 -1       328 7.35970E+02 9.59165E+01 2.02601E+02-7.96955E-01-1.04841E+00-7.32205E+01
 -1       329 7.49396E+02 1.12041E+02 2.31734E+02-6.72081E+00-1.41177E+01-7.91958E+01
 -1       330-5.33108E+00-2.81684E+01 4.07628E+02-6.94672E+01-8.81940E-01-2.89794E+01
 -1       331 2.43593E+02 5.45636E+01 2.36579E+02-1.59179E+00-5.56325E+00-1.49554E+01
 -1       332 2.64793E+02-1.37146E+02 1.57064E+01-1.74361E+00 2.74011E+00-5.75258E+00
 -1       333 2.64714E+02-1.30809E+02 8.81682E+00 7.75314E+00-9.78285E+00-5.78146E+00
 -1       334 2.40296E+02 4.65926E+01 2.36155E+02 2.25948E+01-1.29972E+01-1.70204E+01
 -1       335 3.62509E+02-5.77192E+01 8.45169E+01 2.46770E+00-7.76160E-01-3.43802E+01
 -1       336 7.40612E+02 1.00010E+02 2.14627E+02 1.66795E-01-8.16127E+00-7.53913E+01
 -1       337 3.63459E+02-6.12334E+01 9.38652E+01-1.07892E+00-7.10699E+00-3.46798E+01
 -1       338 1.19783E+01 1.92018E+01 4.21661E+02 6.85113E+00-5.38044E+00-2.77072E+01
 -1       339 2.10135E+02 1.19865E+02 5.23415E+02 1.75774E+00-2.86705E+00-6.39446E+01
 -1       340 4.68406E+02-5.15578E+01 3.36353E+01-1.07760E+00 3.87587E-01 1.30642E+01
 -1       341 4.72877E+02-4.34480E+01 4.06751E+01-7.46848E-01-9.51011E+00 9.33946E+00
 -1       342 2.03482E+02 9.55978E+01 5.22776E+02-2.15329E+01-1.14548E+01-6.13826E+01
 -1       343 1.69941E+02-1.50664E+02-4.16540E+01-1.96178E+00 1.32619E+00 1.55448E+01
 -1       344 2.63969E+02-1.36130E+02 1.15298E+01 1.49374E+00-3.03378E+00-5.78279E+00
 -1       345 1.70822E+02-1.45292E+02-4.51089E+01 1.65045E-01-3.02828E+00 1.69535E+01
 -1       346 2.44001E+02 5.52429E+01 2.38687E+02-9.33715E-01-6.53245E+00-1.64748E+01
 -1       347 6.56265E+02 8.52915E+01 1.64390E+02 6.48659E+00-7.28374E+00-7.37925E+01
 -1       348-7.38516E+01-7.15752E+01 4.25282E+02 1.14059E+01-4.38480E+01-1.29879E+02
 -1       349 2.89280E+02-1.41085E+02 2.85553E+01 7.37459E-01-1.49309E+01-8.57735E+00
 -1       350 2.74237E+02 6.00881E+01 2.72898E+02 5.68590E+00-1.87763E+01-6.49529E+01
 -1       351 7.04939E+02 1.02969E+02 2.00391E+02-1.01702E+00-1.18578E+01-7.70507E+01
 -1       352 3.99635E+02-4.57506E+01 9.62266E+01 4.28906E+00-1.26569E+01-4.89227E+01
 -1       353-5.03089E+01-7.75224E+01 4.08580E+02-1.43233E+02-4.20897E+00-8.77063E+01
 -1       354 4.43531E+02-5.77213E+01 3.09064E+01-7.41052E-01-7.94848E+00 8.57354E+00
 -1       355 1.97110E+02 9.23453E+01 5.74508E+02 1.49918E+01-4.25294E+01-1.71091E+02
 -1       356 2.77783E+02-1.33862E+02 1.94911E+01 4.55312E+00-1.25232E+01-7.26867E+00
 -1       357 1.54798E+02-1.60551E+02-5.06413E+01-2.21696E+00-9.67898E+00 2.52699E+01
 -1       358 2.55204E+02 4.97683E+01 2.51090E+02 4.75815E+01-2.49266E+01-3.85754E+01
 -1       359 3.17850E+02-2.60177E+01-6.59248E+01 1.16118E+01-4.38889E+00 6.84173E+01
 -1       360-3.36912E+02-4.00753E+02-2.05072E+02 7.19450E-01-9.59269E-01 1.75174E+02
 -1       361-3.32583E+02-4.08618E+02-2.00443E+02-1.07450E+01-6.06700E+00 1.72425E+02
 -1       362 3.28449E+02-1.47655E+01-6.05959E+01 1.77187E+00 2.21793E+00 5.87721E+01
 -1       363 1.96293E+02-7.03713E+01-1.12185E+02 5.04476E+00-4.95677E+00 6.82798E+01
 -1       364-4.08421E+00-2.38006E+02-1.91640E+01-7.04762E-01 1.34869E+00 3.21598E+01
 -1       365 2.42946E-01-2.35650E+02-1.62126E+01-2.32920E-01-1.03651E+01 3.14937E+01
 -1       366 1.98374E+02-7.04721E+01-1.13105E+02 1.02801E+01-8.74461E-01 5.92586E+01
 -1       367 1.42924E+02-1.20259E+02 3.48187E+01 7.78027E-01-1.19251E+00 3.30908E+01
 -1       368-3.33107E+02-4.01159E+02-2.00689E+02-4.36722E+00-4.09682E+00 1.73537E+02
 -1       369 1.38212E+02-1.26149E+02 3.43194E+01-1.43049E+00-7.37824E+00 3.31478E+01
 -1       370 3.21152E+02-2.51345E+01-6.52372E+01 1.00948E+01-7.53420E-01 6.37358E+01
 -1       371-3.31138E+02-3.92455E+02-2.02619E+02-1.43088E+01-1.67605E+01 1.63532E+02
 -1       372 3.23032E+02-1.51367E+01-7.68433E+01-7.49124E+00 5.44118E+00 8.55403E+01
 -1       373 8.31245E+00-2.36946E+02-2.14655E+01-2.43258E+00-1.90045E+01 2.77187E+01
 -1       374 2.01718E+02-7.56131E+01-1.27391E+02-7.34853E+00 4.54972E+00 8.39684E+01
 -1       375-3.33503E+02-4.04043E+02-2.03622E+02-1.24853E+01-1.08754E+01 1.68301E+02
 -1       376 1.46079E+02-1.11961E+02 4.42405E+01-2.20442E+00-1.37852E+01 2.51993E+01
 -1       377 3.27732E+02-9.96164E+00-6.70094E+01-7.26346E+00 2.01845E+00 7.19278E+01
 -1       378 4.37270E+01 1.21389E+03-3.84899E+02-1.85971E+00 7.61898E-01 9.52342E+01
 -1       379 2.94991E+01 1.20064E+03-4.22825E+02 8.17767E+00 8.14935E+01 1.01616E+02
 -1       380 1.85374E+02 1.11993E+03 1.19569E+01 3.79715E+00-3.93461E+00-3.39923E+01
 -1       381 1.84456E+02 1.10601E+03 2.54579E+01-7.07901E+00 5.06647E+01-3.52810E+01
 -1       382 9.15846E+01 1.20820E+03-3.42187E+02-9.73335E+00 1.37153E+02 1.10645E+02
 -1       383 1.74864E+02 1.12590E+03 1.55874E+01 3.56796E+00 9.78569E+01-4.05156E+01
 -1       384 2.42440E+02 9.70618E+02 1.85115E+02-1.69523E+00 2.33075E+00-2.16840E+02
 -1       385 2.42974E+02 9.83333E+02 1.81989E+02 1.22415E+01 3.25180E+01-2.14340E+02
 -1       386 2.32520E+02 9.49619E+02 1.75178E+02 1.71952E+01 6.82989E+01-1.96682E+02
 -1       387-1.01327E+02 1.80643E+03-8.04956E+02 3.85896E+01 3.36772E+02 6.55755E+01
 -1       388 1.15044E+03 2.74729E+03 1.49692E+03 1.08634E+02 1.81379E+02-9.18360E+02
 -1       389 4.35600E+01 8.62427E+02-7.76521E+01-3.72556E+01 1.57816E+02-1.85089E+02
 -1       390-2.47152E+02 1.03112E+03-3.62809E+02-3.23102E+01 1.78882E+02 2.13256E+02
 -1       391-1.49467E+02 1.84715E+03-8.18275E+02 3.77287E+01 2.94691E+02 7.15970E+01
 -1       392 3.60004E+02 2.19218E+03 2.24070E+02 4.34195E+01 2.62854E+02-2.36158E+02
 -1       393 1.14087E+03 2.72117E+03 1.48812E+03 8.71703E+01 1.43513E+02-9.18821E+02
 -1       394 8.44946E+01 1.26457E+03-5.11092E+02-4.73237E+00 2.58707E+02-1.32271E+02
 -1       395 2.25046E+02 1.89332E+03 7.12934E+02 2.62636E+01 1.64118E+02-3.02834E+02
 -1       396 7.86205E+01 8.34699E+02-1.05784E+02-1.18426E+01 9.47290E+01-1.70039E+02
 -1       397-4.45875E+01 9.70583E+02-1.94350E+02-2.60990E+01 1.70290E+02-2.60973E+01
 -1       398-2.50591E+02 1.02390E+03-3.73176E+02-2.30395E+01 1.54486E+02 2.17256E+02
 -1       399-9.13603E+01 1.78558E+03-7.78698E+02-9.57077E+00 4.65441E+02 4.49822E+01
 -1       400 1.16735E+03 2.71346E+03 1.50567E+03 1.67642E+02 2.17597E+02-9.16606E+02
 -1       401 1.75543E+01 8.40467E+02-6.77293E+01 1.54913E+01 1.69197E+02-1.48721E+02
 -1       402-2.56721E+02 1.05652E+03-3.23619E+02-2.87537E+01 2.48741E+02 2.14483E+02
 -1       403-9.77595E+01 1.79674E+03-7.93698E+02 3.82034E+00 3.97917E+02 5.40609E+01
 -1       404 3.89866E+02 2.17609E+03 2.56647E+02 4.51970E+01 3.49668E+02-2.47830E+02
 -1       405 1.15916E+03 2.72768E+03 1.49952E+03 1.43171E+02 1.99679E+02-9.16734E+02
 -1       406 8.16445E+01 1.24010E+03-5.07619E+02 1.66240E+01 3.21630E+02-1.16977E+02
 -1       407 2.41024E+02 1.90551E+03 7.44722E+02 5.26275E+01 2.14870E+02-3.03559E+02
 -1       408 3.46194E+01 8.45193E+02-7.44691E+01 2.04923E+00 1.58066E+02-1.67343E+02
 -1       409-5.27803E+01 9.72457E+02-1.69295E+02 3.71026E+00 2.05208E+02-2.06413E+01
 -1       410-2.51578E+02 1.05442E+03-3.38099E+02-3.76792E+01 2.20040E+02 2.15973E+02
 -1       411 1.06883E+02 6.52062E+02 2.52245E+02 1.56914E+01 5.17040E+01-7.16179E+00
 -1       412-1.17686E+02 6.52854E+02-1.98310E+02-3.66492E+00 1.25774E+02 2.03151E+01
 -1       413-5.92874E+01 6.77077E+02-1.14062E+02-1.23080E+01 1.14251E+02 8.61016E+00
 -1       414 6.98627E+01 9.53023E+02-1.39673E+02 2.04896E+00 1.45923E+02-1.13663E+01
 -1       415 7.40976E+01 6.54276E+02 2.45100E+02 3.91455E-01 6.52228E+01-1.35590E+01
 -1       416-6.46919E+00 6.54927E+02 3.30211E+01 4.98088E+00 8.66544E+01 2.11117E+01
 -1       417-9.68363E+01 6.68967E+02-2.02141E+02-4.00060E+00 1.00683E+02 1.67245E+01
 -1       418 1.14557E+02 6.39761E+02 2.09046E+02 7.17596E+00 7.94307E+01-1.08006E+01
 -1       419-9.73399E+01 6.43440E+02-1.73356E+02-1.16160E+01 1.54517E+02 1.37797E+01
 -1       420-6.68131E+01 6.65764E+02-1.09407E+02-3.74643E+00 1.37690E+02 1.37223E+01
 -1       421 5.76308E+01 9.44665E+02-1.29793E+02 4.97205E+00 1.95011E+02-5.79947E+00
 -1       422 1.08651E+02 6.48578E+02 2.31157E+02 9.33544E+00 6.45626E+01-9.39044E+00
 -1       423-8.94076E+00 6.37463E+02 1.64203E+01-8.66992E+00 1.18435E+02 3.07432E+01
 -1       424-1.06899E+02 6.45524E+02-1.87102E+02-5.55153E+00 1.38693E+02 1.59525E+01
 -1       425-4.19033E+02 1.58665E+03-2.48096E+03-9.99946E+01 4.88453E+02 3.77141E+02
 -1       426-1.03893E+01 3.94653E+02-1.42996E+02 4.49897E+01 1.14400E+02-7.46148E+01
 -1       427-5.16321E+02 1.55030E+03-2.59596E+03-8.73537E+01 3.58528E+02 5.35142E+02
 -1       428-9.56297E+01 1.78122E+03-1.52104E+03-5.09923E-01 4.08835E+02 3.11241E+01
 -1       429-2.01845E+02 5.98641E+02-2.02246E+03-1.11249E+01 3.27434E+02 1.77842E+02
 -1       430 2.24193E+02 4.90261E+02-7.20231E+00-6.48356E+01 2.36231E+02-2.77383E+02
 -1       431-4.06233E+01 6.04730E+02-1.36205E+02-4.81692E+00 1.34166E+02-8.96707E+01
 -1       432-4.80364E+02 1.47367E+03-2.39927E+03-7.16125E+01 6.95614E+02 3.98076E+02
 -1       433 9.40489E+01 4.04535E+02-1.76195E+02 3.76036E+01 1.04882E+02-1.55922E+02
 -1       434-4.56071E+02 1.51194E+03-2.43673E+03-7.36567E+01 6.16404E+02 3.87893E+02
 -1       435-1.37731E+02 1.70305E+03-1.48215E+03-6.75293E+00 5.72379E+02 3.35471E+01
 -1       436-1.87638E+02 5.66198E+02-1.99693E+03-1.50221E+01 4.47561E+02 1.59337E+02
 -1       437 6.09386E+01 4.02413E+02-1.55659E+02 2.99353E+01 1.05322E+02-1.23106E+02
 -1       438-1.10013E+01 5.98539E+02-1.48341E+02 1.62060E+01 1.40800E+02-9.87999E+01
 -1       439-1.21945E+02 2.31040E+02-3.04552E+02-2.89540E+01 4.53841E+01 3.22053E+01
 -1       440 6.50081E+01 4.80568E+02-1.40541E+01 1.72407E+01 7.15228E+01-9.00826E+00
 -1       441-6.76348E+01 2.65288E+02-1.69573E+02 2.73476E+01-3.30156E+01 1.42330E+01
 -1       442-6.46286E+00 4.39081E+02-3.22066E+01-5.59898E+00 5.06288E+01-2.01333E+00
 -1       443-1.23566E+02 2.78436E+02-1.39550E+02-6.29008E+00 6.59359E+01 5.72405E+01
 -1       444 7.20700E+01 4.49009E+02 8.47871E+00 2.65276E+00 8.94042E+01-3.55506E+01
 -1       445-1.24451E+02 2.73477E+02-2.17169E+02-8.94226E+00 5.87952E+01 4.79194E+01
 -1       446 1.30445E+01 4.63236E+02 3.61725E+01 6.89285E+00 7.12224E+01-6.03374E+00
 -1       447 7.49377E+02 1.10830E+02 2.32787E+02 2.03117E+01-7.70852E+00-7.68490E+01
 -1       448-5.48340E+00-1.56805E+01 3.94533E+02 7.34445E+01-7.36857E+01-1.64775E+01
 -1       449 2.64697E+02-1.29855E+02 7.77473E+00-6.60740E+00-1.46163E+01-7.03880E+00
 -1       450 2.40276E+02 4.78769E+01 2.34778E+02-1.93057E+01-2.01809E+01-2.06766E+01
 -1       451 7.04919E+02 1.01715E+02 2.01536E+02 1.43882E+01-5.32275E+00-7.57042E+01
 -1       452 3.63425E+02-5.89673E+01 9.15349E+01 7.04437E+00-2.00905E+01-3.39553E+01
 -1       453-5.03903E+01-6.44703E+01 3.95204E+02 1.56368E+02-7.92790E+01-6.14988E+01
 -1       454 4.72882E+02-4.40556E+01 4.12367E+01-9.02081E-01-5.68819E+00 9.30820E+00
 -1       455 2.03393E+02 1.04388E+02 5.13626E+02 3.18597E+01-6.22633E+01-5.67035E+01
 -1       456 2.77765E+02-1.33453E+02 1.90058E+01-3.22979E+00-1.45894E+01-7.94914E+00
 -1       457 1.70803E+02-1.43275E+02-4.71798E+01-3.10002E+00-1.42545E+01 1.66740E+01
 -1       458 2.55204E+02 4.73543E+01 2.53491E+02-4.01529E+01-1.10330E+01-4.62442E+01
 -1       459 7.35573E+02 9.78222E+01 1.99353E+02 1.35636E+01-1.56500E+01-7.19500E+01
 -1       460 7.65339E+00 2.74566E+01 4.03100E+02-9.60323E-03-6.81234E+01-3.03141E+01
 -1       461 2.64806E+02-1.31351E+02 9.93017E+00 2.68404E+00-2.87495E+01-5.37714E+00
 -1       462 2.43635E+02 5.82446E+01 2.33044E+02 4.14733E+00-2.58770E+01-1.44569E+01
 -1       463 7.40340E+02 1.00337E+02 2.13333E+02 1.29228E+01-1.21173E+01-7.42763E+01
 -1       464 3.62338E+02-5.41160E+01 8.03469E+01 3.58056E+00-2.28161E+01-3.43060E+01
 -1       465 1.17917E+01 2.90338E+01 4.11163E+02-2.01929E+00-6.36751E+01-2.84986E+01
 -1       466 4.68152E+02-4.92231E+01 3.04350E+01-1.19708E+00-1.40833E+01 1.30569E+01
 -1       467 2.10076E+02 1.30900E+02 5.12190E+02 9.31934E+00-6.62954E+01-6.32962E+01
 -1       468 2.63972E+02-1.32553E+02 7.93853E+00-4.63655E-01-2.21883E+01-5.96187E+00
 -1       469 1.69933E+02-1.46821E+02-4.55285E+01-7.87658E-01-1.99055E+01 1.56450E+01
 -1       470 2.44016E+02 5.85962E+01 2.35374E+02 3.75795E+00-2.51825E+01-1.60618E+01
 -1       471-3.32575E+02-4.04391E+02-2.04643E+02-1.93864E+01-2.99240E+01 1.71644E+02
 -1       472 3.28424E+02-1.53566E+01-6.00731E+01-1.19545E+01 5.76589E+00 5.75878E+01
 -1       473 2.15297E-01-2.32580E+02-1.93901E+01-5.24268E+00-2.77443E+01 3.10503E+01
 -1       474 1.98354E+02-7.20294E+01-1.11618E+02-2.04203E+01 8.12251E+00 5.65820E+01
 -1       475-3.33493E+02-4.01728E+02-2.05903E+02-1.69336E+01-2.40215E+01 1.67897E+02
 -1       476 1.38229E+02-1.23807E+02 3.20256E+01-4.35916E+00-2.05202E+01 3.28782E+01
 -1       477 3.27723E+02-1.09668E+01-6.60254E+01-5.35110E+00 7.86842E+00 7.21026E+01
 -1       478-3.36889E+02-3.95300E+02-2.10463E+02-3.11056E+01-3.25324E+01 1.72431E+02
 -1       479 3.17902E+02-2.85891E+01-6.31806E+01-2.33015E+01 1.09420E+01 6.53578E+01
 -1       480-4.00519E+00-2.30867E+02-2.60598E+01-4.88987E+00-3.87574E+01 3.18064E+01
 -1       481 1.96337E+02-7.32214E+01-1.09186E+02-1.68276E+01 1.18277E+01 6.63612E+01
 -1       482-3.33095E+02-3.96561E+02-2.05258E+02-2.58471E+01-3.05036E+01 1.71667E+02
 -1       483 1.42934E+02-1.16047E+02 3.06425E+01-6.50568E+00-2.53744E+01 3.24661E+01
 -1       484 3.21174E+02-2.64993E+01-6.37930E+01-2.09989E+01 7.56809E+00 6.10216E+01
 -1       485 2.96517E+01 1.17957E+03-4.01197E+02-2.56081E+01 2.02128E+02 9.86631E+01
 -1       486 1.84500E+02 1.09060E+03 4.10118E+01 1.30599E+01 1.37030E+02-3.34844E+01
 -1       487 4.45309E+01 1.16788E+03-3.36230E+02-1.48063E+01 2.69603E+02 9.41863E+01
 -1       488 1.85331E+02 1.08466E+03 4.71024E+01 2.17634E+00 1.93250E+02-3.41350E+01
 -1       489 2.42940E+02 9.70225E+02 1.94986E+02 2.51747E+01 1.06586E+02-2.13187E+02
 -1       490 2.42436E+02 9.47980E+02 2.07744E+02 3.92302E+01 1.32030E+02-2.13232E+02
 -3
    1PSTEP                         9           1           3          
  100CL  103 3.000000000         490                     0    3           1
 -4  FORC        4    1
 -5  F1          1    2    1    0
 -5  F2          1    2    2    0
 -5  F3          1    2    3    0
 -5  ALL         1    2    0    0    1ALL
 -1         1-2.48430E+00 1.39373E+01-1.86565E+00
 -1         2-2.54804E+00 2.28857E+01-2.79750E+00
 -1         3-4.88381E+00-1.54200E-01-5.54319E+00
 -1         4-5.15331E+00 1.33921E-01-3.58470E+00
 -1         5 1.96758E-04 3.27243E+01-4.90329E-03
 -1         6-8.92609E-04 4.50894E+01-1.40222E-03
 -1         7-2.98117E-12-4.69290E-11 3.04090E-12
 -1         8 1.16322E-12-3.43725E-11-3.20710E-12
 -1         9 2.57904E+00-7.91886E+01 1.44024E+01
 -1        10 2.23982E+00-1.78496E-01 1.26080E+01
 -1        11 5.43918E+00-1.32337E+00 2.87695E+01
 -1        12-4.90411E+00-5.53852E-01 2.16031E+01
 -1        13-3.31041E-04-9.28464E+01 2.43581E-03
 -1        14 6.93138E-04-8.10932E+01 2.49262E-03
 -1        15-1.70634E-13 7.81224E-14 5.03070E-16
 -1        16 8.89740E-14 5.30184E-14-5.74540E-14
 -1        17-8.30933E-05-1.50162E+02 4.53360E-03
 -1        18 5.22871E-12 9.38143E-11 8.71458E-12
 -1        19 3.62631E-12-1.12364E-11 2.76790E-12
 -1        20 1.50463E-12 1.42630E-10 1.19904E-14
 -1        21-4.55966E+00 4.48887E-01-5.13924E+00
 -1        22-5.22068E+00 3.06274E-01-3.54390E+00
 -1        23-7.96585E-15 6.73310E-11-2.72227E-13
 -1        24 1.66835E-12 1.24700E-11-2.32259E-13
 -1        25 2.23132E+00-5.76165E-01 1.23811E+01
 -1        26 5.44904E+00-2.50720E+00 2.85870E+01
 -1        27-4.85163E+00-1.42222E+00 2.14655E+01
 -1        28-1.33341E-13 5.68434E-14-9.76996E-14
 -1        29-1.20401E-13-1.42109E-13-4.97380E-14
 -1        30 1.70194E-12 7.71021E-11-1.06013E-11
 -1        31-5.93747E-13 1.19940E-11 2.52243E-12
 -1        32-1.15762E-12-9.82726E-12 4.36318E-12
 -1        33-5.87108E-04 1.75046E+01 3.08506E+00
 -1        34 9.41060E-04 2.50176E+01 4.57103E+00
 -1        35 5.00074E-12-3.45876E-01 7.91902E+00
 -1        36 5.15058E-12-2.65562E-01 6.08017E+00
 -1        37 3.04740E-04-7.44623E+01 9.01403E-03
 -1        38-1.51931E-04-1.07508E+02 5.57227E-03
 -1        39 1.05804E-11-1.22875E-11-2.05708E-11
 -1        40-2.39656E-12-1.80193E-11 1.15085E-11
 -1        41-1.81841E-03-6.61880E+01-1.21120E+01
 -1        42 9.46876E-12 4.65891E-01-2.13334E+01
 -1        43-4.47871E-12 1.07327E+00-2.45732E+01
 -1        44-6.54785E-13 2.70809E-01-1.24005E+01
 -1        45-1.18738E-12-7.26897E-01 8.30701E+00
 -1        46 4.49710E-13-4.97450E-01 5.68488E+00
 -1        47 2.00298E-13-2.80096E-11 1.49214E-12
 -1        48-1.67302E-12 8.12861E-12 3.03757E-13
 -1        49 4.11583E-12 1.33909E+00-2.04249E+01
 -1        50-2.73709E-12 2.04458E+00-2.33655E+01
 -1        51-1.28118E-12 7.92598E-01-1.20894E+01
 -1        52-1.60314E+00-4.31491E+00 1.12391E-01
 -1        53-3.52322E+00-5.40400E-01 8.29602E-01
 -1        54 2.78837E-04 1.23353E+01 2.71360E-03
 -1        55 1.78476E-11 1.88190E-10-5.25967E-12
 -1        56 3.63135E+00 1.90815E+00-2.90136E+00
 -1        57-1.59668E+00-8.25726E-02-4.54051E+00
 -1        58 6.58606E+00-2.79309E-01-4.90173E+00
 -1        59 6.16541E-04 8.24010E+01 8.39537E-04
 -1        60 1.77664E-12-1.73432E-11-1.81244E-12
 -1        61 7.09565E-04-4.03878E+01 3.18205E-03
 -1        62-1.04478E-11-2.52149E-10-5.31025E-12
 -1        63-4.96625E-12 1.84096E-12-1.00915E-11
 -1        64-4.03770E+00-1.17132E-02 1.45818E-01
 -1        65-5.66531E-12-4.02789E-11-5.85976E-13
 -1        66-1.33054E+00 1.94573E+00-4.30691E+00
 -1        67 5.86624E+00 5.23817E-01-6.00330E+00
 -1        68-1.16016E-11-3.36797E-12 1.19282E-12
 -1        69-2.03433E-12-2.17269E-11-2.95071E-12
 -1        70-1.85253E-12-1.69820E-11-2.54019E-13
 -1        71 3.04479E-04 1.38191E+01 1.33199E+00
 -1        72 2.56181E-11 1.89461E-02-4.33781E-01
 -1        73 2.19773E-03-8.77092E+01-1.90337E-03
 -1        74-1.88169E-12-3.79112E-11 6.08560E-12
 -1        75 8.00512E-04-4.05905E+01-7.29654E+00
 -1        76 5.24199E-13 1.58733E-01-7.26847E+00
 -1        77-2.29387E-12 5.54981E-01-1.27065E+01
 -1        78-6.96092E-12-4.25183E-01 4.85900E+00
 -1        79-1.08462E-11-2.28795E-11 9.80549E-13
 -1        80 5.98046E-12 2.85665E-01-4.35720E+00
 -1        81 4.69458E-12 9.84924E-01-1.12557E+01
 -1        82-1.69257E-04 1.56210E+01 2.35838E-03
 -1        83-1.01040E-04-1.05699E+01-3.32907E-03
 -1        84-5.48817E-12 2.10757E-11-1.46320E-12
 -1        85-7.06117E-12 8.44506E-11 1.26014E-13
 -1        86-6.71671E-04-7.43628E+01-3.22982E-03
 -1        87-1.21693E-03 8.97722E+00 7.61459E-03
 -1        88 2.72855E-11-2.42552E-11-8.76826E-13
 -1        89-2.04650E-12-2.21700E-11 3.09701E-12
 -1        90-1.07178E-03-8.22483E+01 3.64065E-03
 -1        91 2.78084E-12-2.98621E-11-1.63827E-12
 -1        92 2.01106E-11-1.65991E-11-2.46054E-12
 -1        93-6.88925E-12-6.76333E-11-1.05247E-12
 -1        94 2.95946E-11 1.08002E-12-7.91922E-13
 -1        95 2.28426E+01 2.08830E+00-2.38686E+01
 -1        96-8.37363E-12-1.51426E-11-1.66278E-12
 -1        97-4.63339E-12-1.14539E-11 1.25056E-12
 -1        98 3.67090E-13 2.33914E-12 5.71248E-13
 -1        99-1.36201E-11-9.18021E-12-2.26930E-12
 -1       100 2.82569E-12-2.83148E-11 1.71228E-12
 -1       101-6.26992E-04 5.65265E+00-6.01542E-04
 -1       102-3.26648E-04-2.98866E+00 1.25370E-03
 -1       103-1.74222E-11 2.62121E-12 1.54571E-13
 -1       104-1.68797E-11 7.81545E-12-6.15674E-13
 -1       105 8.36650E-04-3.53642E+01 9.13174E-04
 -1       106 8.02129E-04 5.82329E+00-2.57724E-03
 -1       107-1.53295E-12-8.14492E-12-1.20991E-12
 -1       108 9.39310E-12 4.53961E-12-7.36947E-12
 -1       109 5.83307E-04-2.43959E+01-7.00249E-04
 -1       110 6.19272E-13-1.33003E-12 2.31412E-13
 -1       111 1.96052E-11 1.25516E-12 1.75138E-13
 -1       112 3.32924E-12-5.07174E-12 5.05249E-13
 -1       113 1.11598E-11 2.19358E-12-2.69590E-13
 -1       114 1.70274E-11 3.33156E-12 3.10862E-15
 -1       115-1.28950E-11-4.90274E-13 1.23423E-12
 -1       116 2.89518E-12 3.18323E-12-5.24913E-13
 -1       117-4.05814E-13 2.70912E-12 6.31384E-13
 -1       118-1.49346E-11-7.33635E-12 1.35003E-13
 -1       119-6.93670E-13 4.23912E-12 8.75633E-13
 -1       120-9.79308E-06-1.48872E+01 4.70522E-04
 -1       121-7.43007E-12-1.51719E-13-4.70179E-14
 -1       122 4.54326E-05 9.48561E+01-7.70585E-04
 -1       123 2.50690E-12-5.39545E-12-4.51861E-13
 -1       124-3.08318E-05 1.07116E+02-5.79785E-04
 -1       125-5.61444E-12-1.39899E-11 2.55038E-12
 -1       126 1.73278E-11-8.63417E-12 6.75626E-13
 -1       127 1.84298E-11-6.09290E-13 6.70353E-13
 -1       128-7.23639E-12 5.40012E-13 7.24754E-13
 -1       129 1.38517E-11-5.28820E-13-2.00613E-12
 -1       130-2.01523E-11-1.66267E-12 3.97904E-13
 -1       131 3.28272E-06-8.05614E+00-2.61504E-05
 -1       132-1.19536E-11 6.80299E-12 2.89990E-13
 -1       133 2.86562E-05 4.71153E+01 1.65833E-05
 -1       134 7.45361E-12-4.05851E-12-6.60818E-13
 -1       135 3.10815E-05 3.05862E+01-7.62007E-05
 -1       136-1.79474E-12 1.85231E-12 1.05788E-12
 -1       137 8.75902E-12 3.19592E-13-1.52928E-12
 -1       138 5.63408E-12-1.41931E-12 1.06593E-12
 -1       139 5.82760E-12 3.97904E-13-1.20215E-12
 -1       140 4.52094E-12-4.13020E-12-5.90084E-13
 -1       141 1.72471E-12 2.09610E-13-7.77156E-13
 -1       142-4.88386E+00 1.10394E+00-5.38746E+00
 -1       143-5.15270E+00 4.87045E-01-3.54856E+00
 -1       144-4.44825E-13 2.81298E-11-9.13714E-13
 -1       145 1.15768E-12 5.44660E-12 2.22616E-12
 -1       146 2.23104E+00-1.58080E+00 1.22750E+01
 -1       147 5.44174E+00-3.70298E+00 2.85629E+01
 -1       148-4.85045E+00-2.32633E+00 2.13941E+01
 -1       149 1.10465E-14 2.71105E-15-3.69468E-14
 -1       150 4.61055E-14-4.52659E-14-1.07025E-13
 -1       151 1.85213E-13-1.21941E-11-4.38005E-12
 -1       152 6.24332E-13-4.25439E-12 2.62679E-12
 -1       153-1.59428E-13-1.58173E-12 9.33698E-13
 -1       154-2.54748E+00-2.20535E+01-6.69153E+00
 -1       155-2.48630E+00-1.33976E+01-4.24329E+00
 -1       156 8.92609E-04-4.44059E+01-7.82874E+00
 -1       157-1.96785E-04-3.22289E+01-5.67799E+00
 -1       158 2.23986E+00-2.00293E+00 1.23761E+01
 -1       159 2.57683E+00 7.55019E+01 2.79340E+01
 -1       160-4.90255E+00-3.20355E+00 2.13473E+01
 -1       161-6.93122E-04 7.98627E+01 1.40795E+01
 -1       162 3.31035E-04 9.14377E+01 1.61206E+01
 -1       163-1.38961E-12-4.76084E-11 2.57472E-12
 -1       164 8.31187E-05 1.47881E+02 2.60712E+01
 -1       165-5.47708E-13-3.24837E-12 2.83557E-12
 -1       166 1.90854E-12-1.00997E+00 7.67248E+00
 -1       167 2.37688E-12-7.94081E-01 6.03243E+00
 -1       168-7.45612E-13 3.81126E-12 1.88677E-12
 -1       169-5.89057E-13 5.43163E-12 3.68965E-12
 -1       170-4.45886E-13 2.21964E+00-2.02701E+01
 -1       171 1.42492E-12 3.20836E+00-2.43731E+01
 -1       172-6.83828E-13 1.32331E+00-1.20847E+01
 -1       173-9.41021E-04-2.54078E+01 1.56892E-02
 -1       174 5.87084E-04-1.77670E+01-4.79153E-02
 -1       175 1.51897E-04 1.05877E+02 1.86636E+01
 -1       176-3.04679E-04 7.33335E+01 1.29218E+01
 -1       177-1.93115E-12 3.19835E+00-2.07819E+01
 -1       178 1.81838E-03 6.72869E+01-4.46140E-01
 -1       179-1.80780E-12 1.87208E+00-1.21642E+01
 -1       180-3.52184E+00 3.80822E-01 9.60197E-01
 -1       181-7.71799E-12-2.30954E-11-2.96896E-12
 -1       182-1.33034E+00-1.16714E+00-4.60958E+00
 -1       183 6.58692E+00 1.11994E+00-4.78045E+00
 -1       184 5.32758E-12 1.82961E-13 1.19549E-12
 -1       185 4.43821E-12 2.44456E-11 6.93909E-12
 -1       186-9.70626E-13 3.55825E-12 2.12808E-12
 -1       187-1.60179E+00 4.22360E+00 8.96273E-01
 -1       188-2.78805E-04-1.21468E+01-2.14464E+00
 -1       189-1.59785E+00 8.81837E-01-4.52717E+00
 -1       190 3.63095E+00-1.36836E+00-3.18633E+00
 -1       191-6.16557E-04-8.11486E+01-1.43097E+01
 -1       192 6.82777E-12-2.28142E-11 8.10718E-12
 -1       193-7.09609E-04 3.97752E+01 7.01035E+00
 -1       194-3.71855E-12 9.22591E-02-7.00868E-01
 -1       195-4.47106E-12-1.98118E-11 1.46419E-12
 -1       196 4.53897E-12 4.58241E-01-4.18474E+00
 -1       197-3.17402E-12 1.65917E+00-1.26043E+01
 -1       198-3.04412E-04-1.38109E+01-1.26253E+00
 -1       199-2.19774E-03 8.63761E+01 1.52326E+01
 -1       200-2.91452E-12 1.04799E+00-6.80951E+00
 -1       201-8.00548E-04 4.12404E+01-1.34040E-01
 -1       202-3.67877E-12 1.23650E-11 4.34867E-13
 -1       203-4.79382E-12-5.24319E-12-3.65425E-13
 -1       204-2.66193E-12-2.04603E-11 1.12177E-12
 -1       205 1.42900E-12-1.67793E-11-1.77924E-12
 -1       206 2.33292E-11-1.25192E-11-1.19145E-12
 -1       207 1.64559E-11 7.97708E-12-2.55797E-13
 -1       208 5.47914E-12-3.73436E-11-1.13775E-12
 -1       209 1.01035E-04 1.04087E+01 1.83871E+00
 -1       210 1.69252E-04-1.53835E+01-2.71492E+00
 -1       211 1.21694E-03-8.83942E+00-1.56637E+00
 -1       212 6.71676E-04 7.32326E+01 1.29162E+01
 -1       213-2.13885E-11 3.86161E-12-6.44932E-13
 -1       214 1.07178E-03 8.09992E+01 1.42787E+01
 -1       215-8.12076E-12 1.16638E-11 2.28264E-12
 -1       216 2.04659E-11-9.99109E-12-4.96769E-13
 -1       217 1.64576E-12 4.85383E-13 6.83065E-13
 -1       218-8.95109E-12-1.86637E-12 4.32217E-13
 -1       219 5.93672E-12-1.44432E-12-7.61620E-13
 -1       220 5.13504E-12-3.56581E-12-6.73128E-13
 -1       221-3.09060E-12 3.06126E-12 4.61325E-13
 -1       222-2.84061E-12-3.49474E-12-7.98722E-13
 -1       223 3.26648E-04 2.94348E+00 5.17741E-01
 -1       224 6.26993E-04-5.56693E+00-9.80987E-01
 -1       225-8.02129E-04-5.73527E+00-1.00866E+00
 -1       226-8.36649E-04 3.48271E+01 6.14002E+00
 -1       227-1.70841E-11 1.87650E-12 3.89910E-13
 -1       228-5.83306E-04 2.40252E+01 4.23699E+00
 -1       229 5.21325E-12 4.39856E-13 2.47635E-13
 -1       230-6.64844E-12-3.62876E-13 4.35971E-13
 -1       231 2.33996E-12 1.71556E-12-4.57412E-14
 -1       232 7.58603E-12-1.60683E-12 1.81336E-12
 -1       233 2.95246E-11-1.82260E-12-6.57877E-13
 -1       234 9.79306E-06 1.46613E+01 2.58470E+00
 -1       235-4.54325E-05-9.34154E+01-1.64709E+01
 -1       236-6.13930E-12 7.64659E-13-3.64361E-14
 -1       237 3.08317E-05-1.05489E+02-1.85999E+01
 -1       238-7.70618E-12-9.90208E-13-5.94025E-13
 -1       239 5.35873E-12 2.21026E-12-1.38051E-12
 -1       240 6.56458E-12 5.49366E-12 1.07581E-12
 -1       241 1.96423E-11 3.49726E-12-1.21680E-13
 -1       242-3.28265E-06 7.93378E+00 1.39896E+00
 -1       243-2.86563E-05-4.63995E+01-8.18149E+00
 -1       244 1.08262E-11 2.87170E-12-1.38556E-13
 -1       245-3.10815E-05-3.01216E+01-5.31116E+00
 -1       246 9.30597E-04-3.33563E+01 9.66398E-03
 -1       247 3.15400E-03-8.39058E+01-4.16438E-02
 -1       248 2.06368E-11 2.11053E-13-5.37392E-12
 -1       249 5.28522E-13-1.81621E-12-3.31613E-12
 -1       250-2.79496E-04-4.39912E+01-1.65956E-04
 -1       251 8.93988E-04-7.40789E+01 7.60426E-03
 -1       252 5.08269E-12-3.74914E-12 4.67140E-13
 -1       253 1.53434E-11-2.23748E-12-5.10906E-13
 -1       254-3.86689E-03 2.77518E+02-1.00379E-02
 -1       255-2.93756E-11-2.86138E-12-1.89715E-12
 -1       256 1.46518E-11 1.28619E-12 2.66587E-12
 -1       257-9.43068E-12 3.93163E-12-1.80034E-12
 -1       258 4.80838E-04 1.18356E+02 1.11559E-03
 -1       259-4.78436E-03 1.85828E+02-1.14112E-02
 -1       260-1.77320E-12-2.82745E-12 3.26877E-13
 -1       261 2.70843E-12-2.49497E-12 1.05014E-14
 -1       262 2.84275E-04 1.59716E+02 2.22481E-04
 -1       263 1.15315E-11 4.87570E-12-3.90590E-14
 -1       264-2.31309E-11-1.65819E-12-2.50543E-12
 -1       265-6.90231E-12 2.74876E-12-2.42796E-12
 -1       266 9.05409E-12 2.41585E-13-3.52873E-12
 -1       267 2.62258E-11-2.13163E-13-4.00746E-12
 -1       268 3.69252E-11 2.14584E-12-3.73035E-13
 -1       269 1.92676E-11 2.33058E-12 6.74572E-13
 -1       270-1.84865E-11-4.13025E-12 3.20188E-12
 -1       271-5.08287E-11-2.27374E-12-8.34888E-13
 -1       272 1.30500E-11-3.56870E-12 2.63878E-12
 -1       273-1.62386E-11 7.04858E-12 1.72307E-12
 -1       274 3.19382E-12 1.86162E-12-1.46194E-12
 -1       275 1.48348E-11-2.54938E-12 1.07333E-12
 -1       276-4.31521E-11-3.49587E-12 7.69163E-13
 -1       277 3.60862E-12 6.95411E-13-1.25972E-12
 -1       278 1.74228E-04-1.57128E+01 3.36064E-05
 -1       279-1.17443E-03-2.59009E+01-8.79351E-04
 -1       280 8.82506E-13-6.75154E-13 2.13324E-12
 -1       281 2.90539E-12-9.16767E-13 8.61679E-13
 -1       282-3.45737E-04 6.14131E+01-4.66505E-04
 -1       283 2.21871E-03 1.00658E+02 2.31657E-03
 -1       284 7.47676E-12 6.95155E-13 4.02703E-13
 -1       285-2.05884E-12 2.20188E-14-3.84411E-13
 -1       286 6.61224E-05 5.45250E+01 1.76870E-04
 -1       287-4.95216E-12-1.46066E-12-2.14218E-13
 -1       288-6.40145E-12 2.09582E-13-1.86246E-12
 -1       289 1.72464E-12-1.63011E-12-1.83083E-13
 -1       290 2.63263E-12-5.86198E-13 1.80789E-12
 -1       291 2.55580E-12-3.28626E-13-5.10036E-13
 -1       292-4.35841E-12-1.54898E-12 7.31859E-13
 -1       293-3.77781E-12-1.70530E-13-1.04006E-12
 -1       294 6.66942E-13 3.93130E-13 3.03993E-14
 -1       295-9.66175E-13 1.63425E-13-2.76223E-13
 -1       296 1.57206E-12 6.45803E-13-2.71262E-13
 -1       297 7.92920E-03-4.27010E+01 2.80633E+00
 -1       298 1.28527E-11-3.65145E-01 8.29212E+00
 -1       299-8.96724E-05-3.33373E+01-6.64055E-03
 -1       300 8.89671E-12 5.56985E-14 8.55885E-13
 -1       301-3.29142E-03 2.54185E+02-1.08212E-02
 -1       302-1.63198E-11-7.83487E-01 3.58798E+01
 -1       303-5.88263E-12-7.00928E-12-1.50213E-12
 -1       304 1.28746E-03 6.62445E+01 1.01352E-02
 -1       305-6.87714E-14-1.46916E-12-2.29511E-13
 -1       306-2.02757E-03 1.08003E+02 7.09882E-04
 -1       307 6.32307E-13-1.39037E-12 4.51861E-13
 -1       308 1.02169E-11-1.51074E-12 1.67955E-12
 -1       309 4.06297E-12-1.02678E-01 1.17158E+00
 -1       310-2.05782E+01-1.88128E+00 2.15025E+01
 -1       311-3.30771E-11-2.09244E+00 3.19189E+01
 -1       312-1.56541E-13-6.53699E-13-3.12994E-12
 -1       313-3.24793E-12 4.61853E-12-3.01981E-14
 -1       314-1.00370E-11-3.07074E-13-1.03467E-12
 -1       315 1.39438E-11 1.96110E-12 6.76792E-13
 -1       316-6.83884E-04-1.23044E+01 2.38406E-03
 -1       317 6.22662E-14-6.91350E-13 2.36075E-13
 -1       318 3.54151E-04 4.00110E+01-4.50080E-03
 -1       319-2.32286E-13 1.75598E-12 4.90151E-13
 -1       320 1.00522E-03 3.99450E+01-1.70007E-04
 -1       321 2.75426E-12 2.15661E-14 1.20404E-13
 -1       322-2.63536E-12 1.29421E-12 3.24241E-13
 -1       323 7.19732E-01 6.57989E-02-7.52060E-01
 -1       324-2.98317E+00-2.72725E-01 3.11716E+00
 -1       325 1.79023E-15-2.46025E-13 7.12763E-14
 -1       326-5.54657E-12-3.33955E-13 5.12035E-13
 -1       327 6.73821E-01 4.16035E+00-3.54575E+00
 -1       328 7.22613E-04-3.82890E+01-5.19278E+00
 -1       329-9.31977E-13 4.46066E-01-1.02801E+01
 -1       330-3.56946E-01-1.29286E+00-6.78155E+00
 -1       331-7.30004E-02 9.62205E+00 4.02515E+00
 -1       332 9.27530E-04-7.65787E+01 1.45551E-02
 -1       333-3.79186E-12-5.42066E-13 2.26708E-12
 -1       334 1.06499E+00-5.01038E-01 8.26835E+00
 -1       335-5.47785E-04-1.01832E+01-1.28405E-02
 -1       336-1.92298E-11-1.11945E-01 5.12604E+00
 -1       337 2.38698E-12 4.01228E-13 4.06342E-14
 -1       338 2.19229E+00 3.69163E-01-1.17505E+01
 -1       339 6.13402E-02-3.52254E+00 1.15752E+00
 -1       340-1.87628E-03 7.69415E+01-3.54584E-04
 -1       341 7.11159E-12-2.30871E-13-1.77636E-13
 -1       342-2.24550E+00-1.56911E+00 2.18434E+00
 -1       343-1.74894E-04-2.82723E+01 1.29387E-02
 -1       344-3.11471E-11 1.73306E-13-4.44089E-13
 -1       345-3.84435E-12-1.19645E-12-1.22752E-12
 -1       346-7.19587E-01-1.43741E-01 1.42422E+01
 -1       347 6.73434E-12 8.68794E-01-9.92993E+00
 -1       348 5.15592E+00 6.59732E-01-7.54790E+00
 -1       349 1.43432E-11 7.53175E-13 2.44249E-13
 -1       350-2.70398E+00-8.99333E-01 1.02918E+01
 -1       351 5.33279E-12-3.24921E-01 4.95596E+00
 -1       352 7.84428E-13 5.64881E-13 4.04343E-13
 -1       353 3.67063E+00 1.17352E+00-1.23808E+01
 -1       354 6.10290E-13 1.36424E-12-3.87423E-12
 -1       355 3.08570E+00-1.78426E-02 1.65578E-01
 -1       356 1.46456E-11-2.95763E-13 8.78408E-13
 -1       357 1.75254E-12-1.11555E-12-3.99236E-13
 -1       358-2.36589E+00-6.30585E-01 1.45369E+01
 -1       359 9.93851E-01 4.41812E+00 5.76415E-01
 -1       360-3.87877E-04-3.82413E+01-1.27648E-03
 -1       361 9.41525E-12-1.17711E-13 7.66276E-13
 -1       362 1.51602E+00 1.11626E-01 1.38048E+00
 -1       363-3.40261E-01-1.17700E+01-2.53519E+00
 -1       364 3.42963E-05 4.56978E+01 9.53628E-05
 -1       365-2.05270E-11-2.60458E-13 5.56444E-13
 -1       366-3.84456E-01 1.56240E-01-5.36878E+00
 -1       367-3.90307E-04-1.36034E+01-6.63686E-04
 -1       368-1.02245E-11-1.02279E-12 4.59188E-13
 -1       369-7.77295E-13-1.00878E-12 4.12004E-13
 -1       370 2.44874E+00-3.68376E-02-2.20599E+00
 -1       371 1.23879E-11-3.05533E-13-2.17160E-12
 -1       372 1.76544E+00-1.36442E-01 1.57447E+00
 -1       373-5.05884E-12-5.18696E-13 2.76090E-12
 -1       374-1.97308E+00 4.53894E-01-5.18395E+00
 -1       375 2.95586E-12 1.83742E-14-2.29150E-13
 -1       376-9.28669E-12 4.52971E-13-5.83533E-13
 -1       377 2.62235E+00-1.83846E-03-2.49347E+00
 -1       378 1.85540E-04 1.33641E+02 1.28743E+01
 -1       379 7.04431E-12-1.11667E+00 2.57008E+01
 -1       380-3.39824E-03 2.41594E+02-5.25284E-02
 -1       381 1.33038E-11 2.45615E-12 1.98641E-12
 -1       382-2.85105E-13-2.14586E+00 2.45254E+01
 -1       383 4.98535E-12-5.68434E-13-1.40332E-12
 -1       384-9.58951E-04 1.05750E+02 4.27984E-03
 -1       385-3.60934E-12 1.38789E-12-2.44915E-13
 -1       386 2.61879E-12 8.81073E-13 1.70886E-12
 -1       387 3.04690E-12-8.37197E-12 3.41238E-12
 -1       388-9.61964E-12 2.39064E-12 5.45941E-12
 -1       389 5.06451E-12-1.86489E-12 1.17131E-12
 -1       390-9.97683E-12 6.06047E-12-1.58993E-12
 -1       391-2.84013E-11 8.10485E-12-1.70619E-12
 -1       392 1.74962E-11 1.04672E-12-9.97602E-12
 -1       393 2.03482E-12 1.42197E-12 5.36460E-12
 -1       394 4.11968E-12 1.64592E-12-2.00689E-12
 -1       395-3.88029E-12-5.55744E-12-9.79898E-13
 -1       396-2.07967E-11 7.00922E-12-7.28084E-13
 -1       397 5.70997E-11-7.32699E-13 1.36050E-12
 -1       398 2.46231E-12-7.95121E-12-1.31015E-13
 -1       399-3.15405E-03 8.26285E+01 1.46120E+01
 -1       400-9.30647E-04 3.28554E+01 5.78346E+00
 -1       401-8.93989E-04 7.29554E+01 1.28563E+01
 -1       402 2.79489E-04 4.33232E+01 7.63920E+00
 -1       403 2.04472E-11-1.80611E-12 1.97442E-12
 -1       404 3.86698E-03-2.73310E+02-4.81817E+01
 -1       405 8.99014E-12-3.04734E-12 1.26477E-12
 -1       406 4.78437E-03-1.83008E+02-3.22578E+01
 -1       407-4.80831E-04-1.16559E+02-2.05535E+01
 -1       408-7.53632E-12 8.53458E-12-2.50783E-12
 -1       409-2.84266E-04-1.57290E+02-2.77347E+01
 -1       410-8.03630E-12 3.05845E-12 1.48767E-12
 -1       411 2.88228E-13-5.70655E-14 1.38302E-12
 -1       412 8.23362E-13 1.40499E-13 4.91336E-13
 -1       413 8.12038E-12-1.75546E-12-1.59376E-13
 -1       414-1.08412E-12-2.74492E-13-2.69056E-14
 -1       415 1.38763E-12-9.13769E-13-4.10699E-13
 -1       416-9.84351E-13 4.13558E-14-1.68837E-13
 -1       417-1.37707E-12-4.67931E-13-3.88439E-13
 -1       418 1.17443E-03 2.55074E+01 4.49852E+00
 -1       419-1.74228E-04 1.54742E+01 2.72848E+00
 -1       420-2.21871E-03-9.91285E+01-1.74814E+01
 -1       421 3.45737E-04-6.04802E+01-1.06638E+01
 -1       422 1.16717E-12 6.30995E-13 1.26138E-12
 -1       423-6.61225E-05-5.36967E+01-9.46834E+00
 -1       424 1.94712E-13-1.85588E-12 2.89255E-13
 -1       425-3.42748E-12-1.13855E+00 8.66410E+00
 -1       426 3.43564E-04 3.14091E-05-3.58996E-04
 -1       427-1.86597E-11-3.46049E+00 3.16019E+01
 -1       428-5.99676E-12 3.79252E-12 1.49281E-12
 -1       429 2.29566E-12-1.40610E-13 1.34404E-12
 -1       430-1.28728E-03-1.17685E-04 1.34510E-03
 -1       431-3.14396E-11-3.63989E-12 3.05115E-12
 -1       432-7.92919E-03 4.15162E+01 1.04674E+01
 -1       433 8.96724E-05 3.28299E+01 5.79555E+00
 -1       434 9.93516E-12-5.34703E+00 3.47434E+01
 -1       435 3.29141E-03-2.50327E+02-4.41287E+01
 -1       436-1.28746E-03-6.52368E+01-1.15134E+01
 -1       437-2.85797E-12 5.85842E-12 2.67248E-13
 -1       438 2.02757E-03-1.06362E+02-1.87552E+01
 -1       439 3.30048E-05 3.01734E-06-3.44873E-05
 -1       440-4.34997E-05-3.97680E-06 4.54536E-05
 -1       441-4.50204E-05-4.11582E-06 4.70426E-05
 -1       442-4.85209E-12-6.53338E-13-4.00208E-13
 -1       443 6.83883E-04 1.21179E+01 2.13428E+00
 -1       444-3.54150E-04-3.94040E+01-6.94341E+00
 -1       445 1.26504E-12-1.70308E-13 1.69198E-13
 -1       446-1.00522E-03-3.93382E+01-6.93620E+00
 -1       447 2.59326E-12 1.34051E+00-1.01685E+01
 -1       448-3.58784E-01 2.45412E+00-6.48196E+00
 -1       449-1.56095E-11 6.64135E-13-1.13221E-12
 -1       450 1.06430E+00-9.40727E-01 8.23474E+00
 -1       451-4.38880E-11-5.40695E-01 4.93773E+00
 -1       452 7.88486E-12-2.44062E-13 2.82663E-13
 -1       453 3.66899E+00 9.92627E-01-1.23758E+01
 -1       454-2.21387E-11-1.33193E-12-4.90663E-12
 -1       455-2.24969E+00 1.15876E+00 2.42248E+00
 -1       456-2.21867E-12 2.13141E-12 1.10689E-12
 -1       457-8.97069E-13 1.97939E-13 4.53304E-13
 -1       458-2.36565E+00-1.90341E+00 1.44242E+01
 -1       459-7.22623E-04 3.86017E+01 1.58712E+00
 -1       460 6.73856E-01-3.47628E+00-4.24008E+00
 -1       461-9.27523E-04 7.54183E+01 1.32836E+01
 -1       462-7.23484E-02-1.01781E+01 2.29435E+00
 -1       463-5.78748E-12-7.71390E-01 5.01226E+00
 -1       464 5.47782E-04 1.00262E+01 1.78094E+00
 -1       465 2.19362E+00 1.66741E+00-1.15820E+01
 -1       466 1.87627E-03-7.57731E+01-1.33606E+01
 -1       467 6.27991E-02 3.27945E+00 1.74975E+00
 -1       468-5.04639E-11 1.83520E-13-3.68261E-12
 -1       469 1.74894E-04 2.78446E+01 4.89664E+00
 -1       470-7.20308E-01-2.33016E+00 1.40473E+01
 -1       471-1.69968E-11-8.83293E-13 2.00950E-13
 -1       472 1.51582E+00-3.49595E-01 1.33967E+00
 -1       473 9.18454E-12 2.96208E-13 5.06484E-13
 -1       474-3.84241E-01 7.81167E-01-5.31360E+00
 -1       475 8.64997E-12 9.07163E-13-9.65894E-14
 -1       476 6.41191E-12 3.62155E-13-9.99201E-15
 -1       477 2.62266E+00 4.32530E-01-2.45680E+00
 -1       478 3.87836E-04 3.76613E+01 6.64199E+00
 -1       479 9.93353E-01-4.45312E+00-1.97840E-01
 -1       480-3.42447E-05-4.50053E+01-7.93575E+00
 -1       481-3.39673E-01 1.20289E+01-4.56991E-01
 -1       482-6.12843E-14-7.36522E-13 5.36904E-13
 -1       483 3.90310E-04 1.33971E+01 2.36293E+00
 -1       484 2.44950E+00 4.21718E-01-2.16645E+00
 -1       485-1.14800E-11-3.35738E+00 2.54750E+01
 -1       486-4.28191E-12 1.21381E-12-3.18612E-12
 -1       487-1.85539E-04-1.33829E+02-1.06307E+01
 -1       488 3.39819E-03-2.37930E+02-4.19002E+01
 -1       489-1.24123E-12 8.06022E-13 1.82077E-13
 -1       490 9.59001E-04-1.04146E+02-1.83681E+01
 -3
 9999
